 C    P    O    H
   1.000
    7.2974033356000003    0.0000000000000000    0.0000000000000000
   -3.3255740842999999    6.4955978661999998    0.0000000000000000
    0.0000000000000000    0.0000000000000000   15.0000000000000000
   C    P    O    H 
   16    1    1    1
Direct
    0.9931552593987738    0.9895111054853469    0.4138842010028191     C1
    0.1032979738690171    0.2003626471276314    0.4097228209213734     C2
    0.0129283292925443    0.3308556731225024    0.4187484372576109     C3
    0.1301216585213180    0.5533865669167908    0.4236193047486920     C4
    0.0164349165527418    0.6649885053952543    0.4236822365389743     C5
    0.1148530425210761    0.8817893057699506    0.4162653383845668     C6
    0.3267055593459147    0.0011465877919701    0.4211380536078719     C7
    0.4709010567489195    0.5643399961198761    0.4382342069483016     C8
    0.3500427455986125    0.6698462105610199    0.4285853257972798     C9
    0.4513036171227248    0.8989377796789546    0.4289212611102844    C10
    0.6733556872598221    0.0077239587748031    0.4318628697186767    C11
    0.7953788706675696    0.2292534602717487    0.4356276571980695    C12
    0.7098879381038498    0.3559237514555410    0.4641327869422247    C13
    0.8033192954241091    0.5644095184892671    0.4425711791442131    C14
    0.6828942131834870    0.6729808451533028    0.4374866587414051    C15
    0.7797965976118123    0.8891712732305159    0.4255745427562662    C16
    0.3547490065522642    0.2694495914803693    0.4412962067550200     P1
    0.3425820435488865    0.2925128099889001    0.5419025703399911     O1
    0.5941296207902704    0.2987561643771871    0.5167708262551025     H1
