# Don't Edit This Line!      3    50     2     0.040
   103
Reciprocal lattice
    0.000000000000    0.000000000000    0.000000000000     1
    0.333333333333    0.000000000000    0.000000000000     6
    0.333333333333    0.333333333333    0.000000000000     2
    0.000000000000   -0.500000000000    0.000000000000     0
    0.020408387755    0.489795940816    0.000000000000     0
    0.040816775510    0.479591881633    0.000000000000     0
    0.061225163265    0.469387822449    0.000000000000     0
    0.081633551020    0.459183763265    0.000000000000     0
    0.102041938776    0.448979704082    0.000000000000     0
    0.122450326531    0.438775644898    0.000000000000     0
    0.142858714286    0.428571585714    0.000000000000     0
    0.163267102041    0.418367526531    0.000000000000     0
    0.183675489796    0.408163467347    0.000000000000     0
    0.204083877551    0.397959408163    0.000000000000     0
    0.224492265306    0.387755348980    0.000000000000     0
    0.244900653061    0.377551289796    0.000000000000     0
    0.265309040816    0.367347230612    0.000000000000     0
    0.285717428571    0.357143171429    0.000000000000     0
    0.306125816327    0.346939112245    0.000000000000     0
    0.326534204082    0.336735053061    0.000000000000     0
    0.346942591837    0.326530993878    0.000000000000     0
    0.367350979592    0.316326934694    0.000000000000     0
    0.387759367347    0.306122875510    0.000000000000     0
    0.408167755102    0.295918816327    0.000000000000     0
    0.428576142857    0.285714757143    0.000000000000     0
    0.448984530612    0.275510697959    0.000000000000     0
    0.469392918367    0.265306638776    0.000000000000     0
    0.489801306122    0.255102579592    0.000000000000     0
   -0.489790306122    0.244898520408    0.000000000000     0
   -0.469381918367    0.234694461224    0.000000000000     0
   -0.448973530612    0.224490402041    0.000000000000     0
   -0.428565142857    0.214286342857    0.000000000000     0
   -0.408156755102    0.204082283673    0.000000000000     0
   -0.387748367347    0.193878224490    0.000000000000     0
   -0.367339979592    0.183674165306    0.000000000000     0
   -0.346931591837    0.173470106122    0.000000000000     0
   -0.326523204082    0.163266046939    0.000000000000     0
   -0.306114816327    0.153061987755    0.000000000000     0
   -0.285706428571    0.142857928571    0.000000000000     0
   -0.265298040816    0.132653869388    0.000000000000     0
   -0.244889653061    0.122449810204    0.000000000000     0
   -0.224481265306    0.112245751020    0.000000000000     0
   -0.204072877551    0.102041691837    0.000000000000     0
   -0.183664489796    0.091837632653    0.000000000000     0
   -0.163256102041    0.081633573469    0.000000000000     0
   -0.142847714286    0.071429514286    0.000000000000     0
   -0.122439326531    0.061225455102    0.000000000000     0
   -0.102030938776    0.051021395918    0.000000000000     0
   -0.081622551020    0.040817336735    0.000000000000     0
   -0.061214163265    0.030613277551    0.000000000000     0
   -0.040805775510    0.020409218367    0.000000000000     0
   -0.020397387755    0.010205159184    0.000000000000     0
    0.000011000000    0.000001100000    0.000000000000     0
    0.000011000000    0.000001100000    0.000000000000     0
   -0.020397387755   -0.020407085714    0.000000000000     0
   -0.040805775510   -0.040815271429    0.000000000000     0
   -0.061214163265   -0.061223457143    0.000000000000     0
   -0.081622551020   -0.081631642857    0.000000000000     0
   -0.102030938776   -0.102039828571    0.000000000000     0
   -0.122439326531   -0.122448014286    0.000000000000     0
   -0.142847714286   -0.142856200000    0.000000000000     0
   -0.163256102041   -0.163264385714    0.000000000000     0
   -0.183664489796   -0.183672571429    0.000000000000     0
   -0.204072877551   -0.204080757143    0.000000000000     0
   -0.224481265306   -0.224488942857    0.000000000000     0
   -0.244889653061   -0.244897128571    0.000000000000     0
   -0.265298040816   -0.265305314286    0.000000000000     0
   -0.285706428571   -0.285713500000    0.000000000000     0
   -0.306114816327   -0.306121685714    0.000000000000     0
   -0.326523204082   -0.326529871429    0.000000000000     0
   -0.346931591837   -0.346938057143    0.000000000000     0
   -0.367339979592   -0.367346242857    0.000000000000     0
   -0.387748367347   -0.387754428571    0.000000000000     0
   -0.408156755102   -0.408162614286    0.000000000000     0
   -0.428565142857   -0.428570800000    0.000000000000     0
   -0.448973530612   -0.448978985714    0.000000000000     0
   -0.469381918367   -0.469387171429    0.000000000000     0
   -0.489790306122   -0.489795357143    0.000000000000     0
    0.489801306122    0.489796457143    0.000000000000     0
    0.469392918367    0.469388271429    0.000000000000     0
    0.448984530612    0.448980085714    0.000000000000     0
    0.428576142857    0.428571900000    0.000000000000     0
    0.408167755102    0.408163714286    0.000000000000     0
    0.387759367347    0.387755528571    0.000000000000     0
    0.367350979592    0.367347342857    0.000000000000     0
    0.346942591837    0.346939157143    0.000000000000     0
    0.326534204082    0.326530971429    0.000000000000     0
    0.306125816327    0.306122785714    0.000000000000     0
    0.285717428571    0.285714600000    0.000000000000     0
    0.265309040816    0.265306414286    0.000000000000     0
    0.244900653061    0.244898228571    0.000000000000     0
    0.224492265306    0.224490042857    0.000000000000     0
    0.204083877551    0.204081857143    0.000000000000     0
    0.183675489796    0.183673671429    0.000000000000     0
    0.163267102041    0.163265485714    0.000000000000     0
    0.142858714286    0.142857300000    0.000000000000     0
    0.122450326531    0.122449114286    0.000000000000     0
    0.102041938776    0.102040928571    0.000000000000     0
    0.081633551020    0.081632742857    0.000000000000     0
    0.061225163265    0.061224557143    0.000000000000     0
    0.040816775510    0.040816371429    0.000000000000     0
    0.020408387755    0.020408185714    0.000000000000     0
    0.000000000000    0.000000000000    0.000000000000     0
