Repeated-UnitCell:     3    3    1
 1.000000
    9.5734425514837316    0.0000000000000000    0.0000000000000000
   -4.7867212757418658    8.2908444513707025    0.0000000000000000
    0.0000000000000000    0.0000000000000000   17.6503341758709986
   Mo   S 
    9   18
 Direct
    0.1111111143333332    0.2222222290000010    0.5000000000000000     Mo1
    0.4444444576007740    0.2222222290000010    0.5000000000000000     Mo2
    0.7777778008682148    0.2222222290000010    0.5000000000000000     Mo3
    0.1111111143333332    0.5555555722674418    0.5000000000000000     Mo4
    0.4444444576007740    0.5555555722674418    0.5000000000000000     Mo5
    0.7777778008682148    0.5555555722674418    0.5000000000000000     Mo6
    0.1111111143333332    0.8888889155348826    0.5000000000000000     Mo7
    0.4444444576007740    0.8888889155348826    0.5000000000000000     Mo8
    0.7777778008682148    0.8888889155348826    0.5000000000000000     Mo9
    0.2222222290000010    0.1111111143333332    0.4117413023414540      S1
    0.5555555722674418    0.1111111143333332    0.4117413023414540      S2
    0.8888889155348826    0.1111111143333332    0.4117413023414540      S3
    0.2222222290000010    0.4444444576007740    0.4117413023414540      S4
    0.5555555722674418    0.4444444576007740    0.4117413023414540      S5
    0.8888889155348826    0.4444444576007740    0.4117413023414540      S6
    0.2222222290000010    0.7777778008682148    0.4117413023414540      S7
    0.5555555722674418    0.7777778008682148    0.4117413023414540      S8
    0.8888889155348826    0.7777778008682148    0.4117413023414540      S9
    0.2222222290000010    0.1111111143333332    0.5882586676585433     S10
    0.5555555722674418    0.1111111143333332    0.5882586676585433     S11
    0.8888889155348826    0.1111111143333332    0.5882586676585433     S12
    0.2222222290000010    0.4444444576007740    0.5882586676585433     S13
    0.5555555722674418    0.4444444576007740    0.5882586676585433     S14
    0.8888889155348826    0.4444444576007740    0.5882586676585433     S15
    0.2222222290000010    0.7777778008682148    0.5882586676585433     S16
    0.5555555722674418    0.7777778008682148    0.5882586676585433     S17
    0.8888889155348826    0.7777778008682148    0.5882586676585433     S18
