Parameters to Generate KPOINTS (Don't Edit This Line):   0.040  0.030   29  170   6  38  13  40  33  27  19
   199
Reciprocal lattice
    0.00000000000000    0.00000000000000    0.00000000000000     1
    0.12500000000000    0.00000000000000    0.00000000000000     8
    0.25000000000000    0.00000000000000    0.00000000000000     8
    0.37500000000000    0.00000000000000    0.00000000000000     8
    0.50000000000000    0.00000000000000    0.00000000000000     4
    0.12500000000000    0.12500000000000    0.00000000000000     6
    0.25000000000000    0.12500000000000    0.00000000000000    24
    0.37500000000000    0.12500000000000    0.00000000000000    24
    0.50000000000000    0.12500000000000    0.00000000000000    24
   -0.37500000000000    0.12500000000000    0.00000000000000    24
   -0.25000000000000    0.12500000000000    0.00000000000000    24
   -0.12500000000000    0.12500000000000    0.00000000000000    12
    0.25000000000000    0.25000000000000    0.00000000000000     6
    0.37500000000000    0.25000000000000    0.00000000000000    24
    0.50000000000000    0.25000000000000    0.00000000000000    24
   -0.37500000000000    0.25000000000000    0.00000000000000    24
   -0.25000000000000    0.25000000000000    0.00000000000000    12
    0.37500000000000    0.37500000000000    0.00000000000000     6
    0.50000000000000    0.37500000000000    0.00000000000000    24
   -0.37500000000000    0.37500000000000    0.00000000000000    12
    0.50000000000000    0.50000000000000    0.00000000000000     3
    0.37500000000000    0.25000000000000    0.12500000000000    24
    0.50000000000000    0.25000000000000    0.12500000000000    48
   -0.37500000000000    0.25000000000000    0.12500000000000    24
    0.50000000000000    0.37500000000000    0.12500000000000    24
   -0.37500000000000    0.37500000000000    0.12500000000000    48
   -0.25000000000000    0.37500000000000    0.12500000000000    24
   -0.37500000000000    0.50000000000000    0.12500000000000    12
   -0.25000000000000    0.50000000000000    0.25000000000000     6
    0.00000000000000    0.00000000000000    0.00000000000000     0
    0.01351351351351    0.00000000000000    0.01351351351351     0
    0.02702702702703    0.00000000000000    0.02702702702703     0
    0.04054054054054    0.00000000000000    0.04054054054054     0
    0.05405405405405    0.00000000000000    0.05405405405405     0
    0.06756756756757    0.00000000000000    0.06756756756757     0
    0.08108108108108    0.00000000000000    0.08108108108108     0
    0.09459459459459    0.00000000000000    0.09459459459459     0
    0.10810810810811    0.00000000000000    0.10810810810811     0
    0.12162162162162    0.00000000000000    0.12162162162162     0
    0.13513513513514    0.00000000000000    0.13513513513514     0
    0.14864864864865    0.00000000000000    0.14864864864865     0
    0.16216216216216    0.00000000000000    0.16216216216216     0
    0.17567567567568    0.00000000000000    0.17567567567568     0
    0.18918918918919    0.00000000000000    0.18918918918919     0
    0.20270270270270    0.00000000000000    0.20270270270270     0
    0.21621621621622    0.00000000000000    0.21621621621622     0
    0.22972972972973    0.00000000000000    0.22972972972973     0
    0.24324324324324    0.00000000000000    0.24324324324324     0
    0.25675675675676    0.00000000000000    0.25675675675676     0
    0.27027027027027    0.00000000000000    0.27027027027027     0
    0.28378378378378    0.00000000000000    0.28378378378378     0
    0.29729729729730    0.00000000000000    0.29729729729730     0
    0.31081081081081    0.00000000000000    0.31081081081081     0
    0.32432432432432    0.00000000000000    0.32432432432432     0
    0.33783783783784    0.00000000000000    0.33783783783784     0
    0.35135135135135    0.00000000000000    0.35135135135135     0
    0.36486486486486    0.00000000000000    0.36486486486486     0
    0.37837837837838    0.00000000000000    0.37837837837838     0
    0.39189189189189    0.00000000000000    0.39189189189189     0
    0.40540540540541    0.00000000000000    0.40540540540541     0
    0.41891891891892    0.00000000000000    0.41891891891892     0
    0.43243243243243    0.00000000000000    0.43243243243243     0
    0.44594594594595    0.00000000000000    0.44594594594595     0
    0.45945945945946    0.00000000000000    0.45945945945946     0
    0.47297297297297    0.00000000000000    0.47297297297297     0
    0.48648648648649    0.00000000000000    0.48648648648649     0
    0.50000000000000    0.00000000000000    0.50000000000000     0
    0.50000000000000    0.00000000000000    0.50000000000000     0
    0.51041666666667    0.02083333333333    0.51041666666667     0
    0.52083333333333    0.04166666666667    0.52083333333333     0
    0.53125000000000    0.06250000000000    0.53125000000000     0
    0.54166666666667    0.08333333333333    0.54166666666667     0
    0.55208333333333    0.10416666666667    0.55208333333333     0
    0.56250000000000    0.12500000000000    0.56250000000000     0
    0.57291666666667    0.14583333333333    0.57291666666667     0
    0.58333333333333    0.16666666666667    0.58333333333333     0
    0.59375000000000    0.18750000000000    0.59375000000000     0
    0.60416666666667    0.20833333333333    0.60416666666667     0
    0.61458333333333    0.22916666666667    0.61458333333333     0
    0.62500000000000    0.25000000000000    0.62500000000000     0
    0.37500000000000    0.37500000000000    0.75000000000000     0
    0.36538461538462    0.36538461538462    0.73076923076923     0
    0.35576923076923    0.35576923076923    0.71153846153846     0
    0.34615384615385    0.34615384615385    0.69230769230769     0
    0.33653846153846    0.33653846153846    0.67307692307692     0
    0.32692307692308    0.32692307692308    0.65384615384615     0
    0.31730769230769    0.31730769230769    0.63461538461538     0
    0.30769230769231    0.30769230769231    0.61538461538462     0
    0.29807692307692    0.29807692307692    0.59615384615385     0
    0.28846153846154    0.28846153846154    0.57692307692308     0
    0.27884615384615    0.27884615384615    0.55769230769231     0
    0.26923076923077    0.26923076923077    0.53846153846154     0
    0.25961538461538    0.25961538461538    0.51923076923077     0
    0.25000000000000    0.25000000000000    0.50000000000000     0
    0.24038461538462    0.24038461538462    0.48076923076923     0
    0.23076923076923    0.23076923076923    0.46153846153846     0
    0.22115384615385    0.22115384615385    0.44230769230769     0
    0.21153846153846    0.21153846153846    0.42307692307692     0
    0.20192307692308    0.20192307692308    0.40384615384615     0
    0.19230769230769    0.19230769230769    0.38461538461538     0
    0.18269230769231    0.18269230769231    0.36538461538462     0
    0.17307692307692    0.17307692307692    0.34615384615385     0
    0.16346153846154    0.16346153846154    0.32692307692308     0
    0.15384615384615    0.15384615384615    0.30769230769231     0
    0.14423076923077    0.14423076923077    0.28846153846154     0
    0.13461538461538    0.13461538461538    0.26923076923077     0
    0.12500000000000    0.12500000000000    0.25000000000000     0
    0.11538461538462    0.11538461538462    0.23076923076923     0
    0.10576923076923    0.10576923076923    0.21153846153846     0
    0.09615384615385    0.09615384615385    0.19230769230769     0
    0.08653846153846    0.08653846153846    0.17307692307692     0
    0.07692307692308    0.07692307692308    0.15384615384615     0
    0.06730769230769    0.06730769230769    0.13461538461538     0
    0.05769230769231    0.05769230769231    0.11538461538462     0
    0.04807692307692    0.04807692307692    0.09615384615385     0
    0.03846153846154    0.03846153846154    0.07692307692308     0
    0.02884615384615    0.02884615384615    0.05769230769231     0
    0.01923076923077    0.01923076923077    0.03846153846154     0
    0.00961538461538    0.00961538461538    0.01923076923077     0
    0.00000000000000    0.00000000000000    0.00000000000000     0
    0.00000000000000    0.00000000000000    0.00000000000000     0
    0.01562500000000    0.01562500000000    0.01562500000000     0
    0.03125000000000    0.03125000000000    0.03125000000000     0
    0.04687500000000    0.04687500000000    0.04687500000000     0
    0.06250000000000    0.06250000000000    0.06250000000000     0
    0.07812500000000    0.07812500000000    0.07812500000000     0
    0.09375000000000    0.09375000000000    0.09375000000000     0
    0.10937500000000    0.10937500000000    0.10937500000000     0
    0.12500000000000    0.12500000000000    0.12500000000000     0
    0.14062500000000    0.14062500000000    0.14062500000000     0
    0.15625000000000    0.15625000000000    0.15625000000000     0
    0.17187500000000    0.17187500000000    0.17187500000000     0
    0.18750000000000    0.18750000000000    0.18750000000000     0
    0.20312500000000    0.20312500000000    0.20312500000000     0
    0.21875000000000    0.21875000000000    0.21875000000000     0
    0.23437500000000    0.23437500000000    0.23437500000000     0
    0.25000000000000    0.25000000000000    0.25000000000000     0
    0.26562500000000    0.26562500000000    0.26562500000000     0
    0.28125000000000    0.28125000000000    0.28125000000000     0
    0.29687500000000    0.29687500000000    0.29687500000000     0
    0.31250000000000    0.31250000000000    0.31250000000000     0
    0.32812500000000    0.32812500000000    0.32812500000000     0
    0.34375000000000    0.34375000000000    0.34375000000000     0
    0.35937500000000    0.35937500000000    0.35937500000000     0
    0.37500000000000    0.37500000000000    0.37500000000000     0
    0.39062500000000    0.39062500000000    0.39062500000000     0
    0.40625000000000    0.40625000000000    0.40625000000000     0
    0.42187500000000    0.42187500000000    0.42187500000000     0
    0.43750000000000    0.43750000000000    0.43750000000000     0
    0.45312500000000    0.45312500000000    0.45312500000000     0
    0.46875000000000    0.46875000000000    0.46875000000000     0
    0.48437500000000    0.48437500000000    0.48437500000000     0
    0.50000000000000    0.50000000000000    0.50000000000000     0
    0.50000000000000    0.50000000000000    0.50000000000000     0
    0.50000000000000    0.49038461538462    0.50961538461538     0
    0.50000000000000    0.48076923076923    0.51923076923077     0
    0.50000000000000    0.47115384615385    0.52884615384615     0
    0.50000000000000    0.46153846153846    0.53846153846154     0
    0.50000000000000    0.45192307692308    0.54807692307692     0
    0.50000000000000    0.44230769230769    0.55769230769231     0
    0.50000000000000    0.43269230769231    0.56730769230769     0
    0.50000000000000    0.42307692307692    0.57692307692308     0
    0.50000000000000    0.41346153846154    0.58653846153846     0
    0.50000000000000    0.40384615384615    0.59615384615385     0
    0.50000000000000    0.39423076923077    0.60576923076923     0
    0.50000000000000    0.38461538461538    0.61538461538462     0
    0.50000000000000    0.37500000000000    0.62500000000000     0
    0.50000000000000    0.36538461538462    0.63461538461538     0
    0.50000000000000    0.35576923076923    0.64423076923077     0
    0.50000000000000    0.34615384615385    0.65384615384615     0
    0.50000000000000    0.33653846153846    0.66346153846154     0
    0.50000000000000    0.32692307692308    0.67307692307692     0
    0.50000000000000    0.31730769230769    0.68269230769231     0
    0.50000000000000    0.30769230769231    0.69230769230769     0
    0.50000000000000    0.29807692307692    0.70192307692308     0
    0.50000000000000    0.28846153846154    0.71153846153846     0
    0.50000000000000    0.27884615384615    0.72115384615385     0
    0.50000000000000    0.26923076923077    0.73076923076923     0
    0.50000000000000    0.25961538461538    0.74038461538462     0
    0.50000000000000    0.25000000000000    0.75000000000000     0
    0.50000000000000    0.25000000000000    0.75000000000000     0
    0.50000000000000    0.23611111111111    0.73611111111111     0
    0.50000000000000    0.22222222222222    0.72222222222222     0
    0.50000000000000    0.20833333333333    0.70833333333333     0
    0.50000000000000    0.19444444444444    0.69444444444444     0
    0.50000000000000    0.18055555555556    0.68055555555556     0
    0.50000000000000    0.16666666666667    0.66666666666667     0
    0.50000000000000    0.15277777777778    0.65277777777778     0
    0.50000000000000    0.13888888888889    0.63888888888889     0
    0.50000000000000    0.12500000000000    0.62500000000000     0
    0.50000000000000    0.11111111111111    0.61111111111111     0
    0.50000000000000    0.09722222222222    0.59722222222222     0
    0.50000000000000    0.08333333333333    0.58333333333333     0
    0.50000000000000    0.06944444444444    0.56944444444444     0
    0.50000000000000    0.05555555555556    0.55555555555556     0
    0.50000000000000    0.04166666666667    0.54166666666667     0
    0.50000000000000    0.02777777777778    0.52777777777778     0
    0.50000000000000    0.01388888888889    0.51388888888889     0
    0.50000000000000    0.00000000000000    0.50000000000000     0
