 CONTCAR2                               
   1.00000000000000     
    10.5475997924999998    0.0000000000000000    0.0000000000000000
    -5.2737998961999999    9.1344893692000007    0.0000000000000000
     0.0000000000000000    0.0000000000000000    8.4589996337999995
   H 
     2
Selective dynamics
Direct
  0.3790494172399903  0.7445757747454991  0.9253694507111447   T   T   T
  0.4062601211008358  0.8258121934447402  0.9373587409934176   T   T   T
 
  0.00000000E+00  0.00000000E+00  0.00000000E+00
  0.00000000E+00  0.00000000E+00  0.00000000E+00
