 CONTCAR2
   1.000
   10.5475997924999998    0.0000000000000000    0.0000000000000000
   -5.2737998961999999    9.1344893692000007    0.0000000000000000
    0.0000000000000000    0.0000000000000000    8.4589996337999995
   H 
    2
Selective Dynamics
Cartesian
     0.0713179110619133     6.8013194989765893     7.8276998446952852  T T T 
    -0.0700990910453842     7.5433727019767431     7.9491172468025697  T T T 
