monolayer                               
   1.00000000000000000     
     3.3085956175922053    0.0000000000000000    0.0000000000000000
     0.0000000000000000    4.5683646415022707    0.0000000000000000
     0.0000000000000000    0.0000000000000000   17.1348459044202315
   P 
     4
Direct
  0.5000000000000000  0.0876569748955092  0.1204995180844719
  0.0000000000000000  0.5876569448955138  0.9975004829155267
  0.0000000000000000  0.4123430251044908  0.1204995180844719
  0.5000000000000000  0.9123430551044862  0.9975004829155267

  0.00000000E+00  0.00000000E+00  0.00000000E+00
  0.00000000E+00  0.00000000E+00  0.00000000E+00
  0.00000000E+00  0.00000000E+00  0.00000000E+00
  0.00000000E+00  0.00000000E+00  0.00000000E+00
