CONTCAR2                                
   1.00000000000000     
    10.5475997924999998    0.0000000000000000    0.0000000000000000
    -5.2737998961999999    9.1344893692000007    0.0000000000000000
     0.0000000000000000    0.0000000000000000    8.4589996337999995
   H 
     2
Selective dynamics
Direct
  0.3760522997981042  0.7520945859507506  0.9357203793191644   T   T   T
  0.4166699946139191  0.8333299755831547  0.9333560335494726   T   T   T
 
  0.00000000E+00  0.00000000E+00  0.00000000E+00
  0.00000000E+00  0.00000000E+00  0.00000000E+00
