CONTCAR2
1.0
+10.5475997925  +0.0000000000  +0.0000000000 
 -5.2737998962  +9.1344893692  +0.0000000000 
 +0.0000000000  +0.0000000000 +8.4589996338 
 H
 2
Selective
Cartesian
 0.0000528100  6.8700000000000001  +7.9152583460  T T T
 +0.0000528100  +7.6120438030  +7.9152583460  T T T
