C    P    O    H 
   1.00000000000000     
   7.2974033356000003   0.0000000000000000   0.0000000000000000
  -3.3255740842999999   6.4955978661999998   0.0000000000000000
   0.0000000000000000   0.0000000000000000  15.0000000000000000
C    P    O    H 
16  1  1  1  
Direct
  0.9930634608028800  0.9896920169763490  0.4138589699772620  
  0.1032957766454170  0.2004395899594230  0.4091308685717510  
  0.0131259848852139  0.3311042720149120  0.4186841014257110  
  0.1301004847248990  0.5536514845658260  0.4238603040359120  
  0.0162008454553941  0.6650845065448150  0.4240760325817660  
  0.1145781796658700  0.8818079857041280  0.4164444410986410  
  0.3264454609729770  0.0012170528502580  0.4209882574224010  
  0.4710155259913480  0.5655801392022251  0.4394989740031080  
  0.3500356585334860  0.6705439612383870  0.4290790897376200  
  0.4512886986728260  0.8993593026200269  0.4290010706374970  
  0.6733867386142121  0.0081128446600402  0.4319430041565440  
  0.7956093768608810  0.2295950104776670  0.4356811405099560  
  0.7097974745075110  0.3559146029055570  0.4643338165141770  
  0.8031272556871730  0.5646104922197710  0.4431646455458780  
  0.6830505187990210  0.6736119226821340  0.4383745062972860  
  0.7798411914024970  0.8895535387251600  0.4259315470531960  
  0.3556267830417640  0.2692462712667660  0.4388550276113680  
  0.3444368468776200  0.2971467316389250  0.5395104421485470  
  0.5933965250150240  0.2978566350803010  0.5165928047880330  
