C    P    O    H 
   1.00000000000000     
   7.2974033356000003   0.0000000000000000   0.0000000000000000
  -3.3255740842999999   6.4955978661999998   0.0000000000000000
   0.0000000000000000   0.0000000000000000  15.0000000000000000
C    P    O    H 
16  1  1  1  
Direct
  0.9934306551865080  0.9889683710123620  0.4139598940794400  
  0.1033045655397870  0.2001318186322080  0.4114986779702580  
  0.0123353625145270  0.3301098764452630  0.4189414447532660  
  0.1301851799105830  0.5525918139696270  0.4228963068870610  
  0.0171371298447838  0.6647005019466190  0.4225008484106140  
  0.1156776310867040  0.8817332659674550  0.4157280302423630  
  0.3274858544647400  0.0009351926171348  0.4215874421643380  
  0.4705576490215860  0.5606195668728520  0.4344399057839110  
  0.3500640067939570  0.6677529585289220  0.4271040339762780  
  0.4513483724723880  0.8976732108557640  0.4286818325285960  
  0.6732625331966280  0.0065573011190239  0.4316224664051020  
  0.7946873520876000  0.2282288096539630  0.4354672072623910  
  0.7101593288928920  0.3559511971054690  0.4635296982263670  
  0.8038954146349300  0.5638065972977270  0.4407907799391850  
  0.6824252963369229  0.6710876125667580  0.4348231160737300  
  0.7796628162397780  0.8880244767465940  0.4245035298655110  
  0.3521156770837520  0.2700595521211970  0.4486197441859830  
  0.3370176335627020  0.2786110450388430  0.5490789549143290  
  0.5963289081160210  0.3014547522678730  0.5173048906562630  
