C    P    O    H 
   1.00000000000000     
   7.2974033356000003   0.0000000000000000   0.0000000000000000
  -3.3255740842999999   6.4955978661999998   0.0000000000000000
   0.0000000000000000   0.0000000000000000  15.0000000000000000
C    P    O    H 
16  1  1  1  
Direct
  0.9937978495701189  0.9882447250483670  0.4140608181816359  
  0.1033133544341679  0.1998240473050105  0.4138664873687585  
  0.0115447401438423  0.3291154808756172  0.4191987880808343  
  0.1302698750962660  0.5515321433734486  0.4219323097381995  
  0.0180734142341727  0.6643164973484063  0.4209256642394565  
  0.1167770825075376  0.8816585462307669  0.4150116193860797  
  0.3285262479564980  0.0006533323840025  0.4221866269062557  
  0.4700997720518405  0.5556589945434703  0.4293808375647057  
  0.3500923550544404  0.6649619558194552  0.4251289782149294  
  0.4514080462719616  0.8959871190914908  0.4283625944197131  
  0.6731383277790508  0.0050017575780304  0.4313019286536515  
  0.7937653273143305  0.2268626088302712  0.4352532740148314  
  0.7105211832782647  0.3559877913053890  0.4627255799385572  
  0.8046635735826837  0.5630027023756935  0.4384169143325055  
  0.6818000738748109  0.6685633024513995  0.4312717258501835  
  0.7794844410770532  0.8864954147680260  0.4230755126778157  
  0.3486045711257443  0.2708728329756203  0.4583844607605974  
  0.3295984202477789  0.2600753584387562  0.5586474676801086  
  0.5992612912170153  0.3050528694554344  0.5180169765245105  
