ethanol                                 
   1.00000000000000     
    20.0000000000000000    0.0000000000000000    0.0000000000000000
     0.0000000000000000   20.0000000000000000    0.0000000000000000
     0.0000000000000000    0.0000000000000000   20.0000000000000000
   C    O    H 
     2     1     6
Direct
  0.4480383419399985  0.4839298061150004  0.5662450960849981
  0.5020185459550035  0.5186661173050027  0.6065064624700014
  0.5653807824100028  0.5052562653449968  0.5753771921099968
  0.4563923741050004  0.4295835815999993  0.5650850828049983
  0.4474467192049971  0.5023395590749971  0.5144232383349987
  0.3987477410300002  0.4934585966099974  0.5886418012299970
  0.5017558086399987  0.5000522150900011  0.6586575579449985
  0.4924514251350018  0.5731802172300036  0.6080490096999966
  0.6002182772249967  0.5274635856750010  0.5990145984200032
 
  0.00000000E+00  0.00000000E+00  0.00000000E+00
  0.00000000E+00  0.00000000E+00  0.00000000E+00
  0.00000000E+00  0.00000000E+00  0.00000000E+00
  0.00000000E+00  0.00000000E+00  0.00000000E+00
  0.00000000E+00  0.00000000E+00  0.00000000E+00
  0.00000000E+00  0.00000000E+00  0.00000000E+00
  0.00000000E+00  0.00000000E+00  0.00000000E+00
  0.00000000E+00  0.00000000E+00  0.00000000E+00
  0.00000000E+00  0.00000000E+00  0.00000000E+00
