 C    P    O    H
   1.000
    7.2974033356000003    0.0000000000000000    0.0000000000000000
   -3.3255740842999999    6.4955978661999998    0.0000000000000000
    0.0000000000000000    0.0000000000000000   15.0000000000000000
   C    P    O    H 
   16    1    1    1
Direct
    0.9918700790560835    0.9920438663593069    0.4135309666451856     C1
    0.1032672127387153    0.2014398467728730    0.4014354880266031     C2
    0.0156955075899482    0.3343360576162727    0.4178477356111640     C3
    0.1298252253714220    0.5570954140034752    0.4269932947696771     C4
    0.0131579211898801    0.6663325214889506    0.4291953811380098     C5
    0.1110049625481533    0.8820508248483181    0.4187727763815409     C6
    0.3230641821247482    0.0021330986079054    0.4190409070111042     C7
    0.4725036261430774    0.5817019992726876    0.4559409457154935     C8
    0.3499435266869567    0.6796147200441494    0.4354980209619804     C9
    0.4510947588242512    0.9048391008538822    0.4300385944914271    C10
    0.6737904062213649    0.0131683611683485    0.4329847518487269    C11
    0.7986059573740480    0.2340351631547037    0.4363764235645459    C12
    0.7086214477550199    0.3557956717558450    0.4669472009495597    C13
    0.8006307391069598    0.5672231507164145    0.4508797087676281    C14
    0.6850824918008392    0.6818159305571097    0.4499165245238483    C15
    0.7804209106813305    0.8945229901554961    0.4305726029131672    C16
    0.3670378774053039    0.2666031084898672    0.4071196987438651     P1
    0.3685492901511017    0.3573877130891880    0.5084127756597560     O1
    0.5838662799367808    0.2861627542206924    0.5142785257162867     H1
