Global Parameters
  ISTART =  1            (Read existing wavefunction; if there)
  # ICHARG =  11         (Non-self-consistent: GGA/LDA band structures)
  LREAL  = Auto          (Projection operators: automatic)
  ENCUT  =  400          (Cut-off energy for plane wave basis set, in eV) 
  PREC   =  Normal     (Precision level)  
  LWAVE  = .TRUE.        (Write WAVECAR or not)
  LCHARG = .TRUE.        (Write CHGCAR or not) 
  ADDGRID= .TRUE.        (Increase grid; helps GGA convergence) 
  # LVTOT  = .TRUE.      (Write total electrostatic potential into LOCPOT or not)
  # LVHAR  = .TRUE.      (Write ionic + Hartree electrostatic potential into LOCPOT or not)
  # NELECT =             (No. of electrons: charged cells; be careful)
  # LPLANE = .TRUE.      (Real space distribution; supercells)
  # NPAR   = 4           (Max is no. nodes; don't set for hybrids)
 
Static Calculation
  ISMEAR =  0            (tetrahedron method for DOS) 
  LORBIT =  11           (PAW radii for projected DOS)
  NEDOS  =  2001         (DOSCAR points) 
  NELM   =  60           (Max electronic SCF steps)
  EDIFF  =  1E-08        (SCF energy convergence; in eV)
 
HSE06 Calculation
  LHFCALC= .TRUE.       (Activate HF)
  AEXX   =  0.25        (25% HF exact exchange, adjusted this value to reproduce experimental band gap)
  HFSCREEN= 0.2         (Switch to screened exchange; e.g. HSE06)
  ALGO   =  ALL         (Electronic Minimisation Algorithm; ALGO=58)      
  TIME   =  0.4         (Timestep for IALGO5X)
  PRECFOCK= N           (HF FFT grid) 
  # NKRED    = 2        (Reduce k-grid-even only, see also NKREDX, NKREDY and NKREDZ)
  # HFLMAX   = 4        (HF cut-off: 4d, 6f)
  # LDIAG    = .TRUE.   (Diagnolise Eigenvalues)
 
