# Don't Edit This Line!     24    10     6     0.040
    84
Reciprocal lattice
    0.00000000000000    0.00000000000000    0.00000000000000     2
    0.12500000000000    0.00000000000000    0.00000000000000     6
    0.25000000000000    0.00000000000000    0.00000000000000    10
    0.37500000000000    0.00000000000000    0.00000000000000    10
    0.50000000000000    0.00000000000000    0.00000000000000     6
    0.12500000000000    0.12500000000000    0.00000000000000     5
    0.25000000000000    0.12500000000000    0.00000000000000    29
    0.37500000000000    0.12500000000000    0.00000000000000    18
    0.50000000000000    0.12500000000000    0.00000000000000    21
   -0.37500000000000    0.12500000000000    0.00000000000000    21
   -0.25000000000000    0.12500000000000    0.00000000000000    20
    0.25000000000000    0.25000000000000    0.00000000000000     2
    0.37500000000000    0.25000000000000    0.00000000000000    37
    0.50000000000000    0.25000000000000    0.00000000000000    43
   -0.37500000000000    0.25000000000000    0.00000000000000    43
   -0.25000000000000    0.25000000000000    0.00000000000000    18
    0.37500000000000    0.37500000000000    0.00000000000000     2
    0.50000000000000    0.37500000000000    0.00000000000000    38
   -0.37500000000000    0.37500000000000    0.00000000000000    34
    0.37500000000000    0.25000000000000    0.12500000000000     6
    0.50000000000000    0.25000000000000    0.12500000000000    22
   -0.37500000000000    0.25000000000000    0.12500000000000    18
    0.50000000000000    0.37500000000000    0.12500000000000    15
   -0.37500000000000    0.37500000000000    0.12500000000000    86
    0.00000000000000    0.00000000000000    0.00000000000000     0
    0.05555555555556    0.00000000000000    0.05555555555556     0
    0.11111111111111    0.00000000000000    0.11111111111111     0
    0.16666666666667    0.00000000000000    0.16666666666667     0
    0.22222222222222    0.00000000000000    0.22222222222222     0
    0.27777777777778    0.00000000000000    0.27777777777778     0
    0.33333333333333    0.00000000000000    0.33333333333333     0
    0.38888888888889    0.00000000000000    0.38888888888889     0
    0.44444444444444    0.00000000000000    0.44444444444444     0
    0.50000000000000    0.00000000000000    0.50000000000000     0
    0.50000000000000    0.00000000000000    0.50000000000000     0
    0.51388888888889    0.02777777777778    0.51388888888889     0
    0.52777777777778    0.05555555555556    0.52777777777778     0
    0.54166666666667    0.08333333333333    0.54166666666667     0
    0.55555555555556    0.11111111111111    0.55555555555556     0
    0.56944444444444    0.13888888888889    0.56944444444444     0
    0.58333333333333    0.16666666666667    0.58333333333333     0
    0.59722222222222    0.19444444444444    0.59722222222222     0
    0.61111111111111    0.22222222222222    0.61111111111111     0
    0.62500000000000    0.25000000000000    0.62500000000000     0
    0.37500000000000    0.37500000000000    0.75000000000000     0
    0.33333333333333    0.33333333333333    0.66666666666667     0
    0.29166666666667    0.29166666666667    0.58333333333333     0
    0.25000000000000    0.25000000000000    0.50000000000000     0
    0.20833333333333    0.20833333333333    0.41666666666667     0
    0.16666666666667    0.16666666666667    0.33333333333333     0
    0.12500000000000    0.12500000000000    0.25000000000000     0
    0.08333333333333    0.08333333333333    0.16666666666667     0
    0.04166666666667    0.04166666666667    0.08333333333333     0
    0.00000000000000    0.00000000000000    0.00000000000000     0
    0.00000000000000    0.00000000000000    0.00000000000000     0
    0.05555555555556    0.05555555555556    0.05555555555556     0
    0.11111111111111    0.11111111111111    0.11111111111111     0
    0.16666666666667    0.16666666666667    0.16666666666667     0
    0.22222222222222    0.22222222222222    0.22222222222222     0
    0.27777777777778    0.27777777777778    0.27777777777778     0
    0.33333333333333    0.33333333333333    0.33333333333333     0
    0.38888888888889    0.38888888888889    0.38888888888889     0
    0.44444444444444    0.44444444444444    0.44444444444444     0
    0.50000000000000    0.50000000000000    0.50000000000000     0
    0.50000000000000    0.50000000000000    0.50000000000000     0
    0.50000000000000    0.47222222222222    0.52777777777778     0
    0.50000000000000    0.44444444444444    0.55555555555556     0
    0.50000000000000    0.41666666666667    0.58333333333333     0
    0.50000000000000    0.38888888888889    0.61111111111111     0
    0.50000000000000    0.36111111111111    0.63888888888889     0
    0.50000000000000    0.33333333333333    0.66666666666667     0
    0.50000000000000    0.30555555555556    0.69444444444444     0
    0.50000000000000    0.27777777777778    0.72222222222222     0
    0.50000000000000    0.25000000000000    0.75000000000000     0
    0.50000000000000    0.25000000000000    0.75000000000000     0
    0.50000000000000    0.22222222222222    0.72222222222222     0
    0.50000000000000    0.19444444444444    0.69444444444444     0
    0.50000000000000    0.16666666666667    0.66666666666667     0
    0.50000000000000    0.13888888888889    0.63888888888889     0
    0.50000000000000    0.11111111111111    0.61111111111111     0
    0.50000000000000    0.08333333333333    0.58333333333333     0
    0.50000000000000    0.05555555555556    0.55555555555556     0
    0.50000000000000    0.02777777777778    0.52777777777778     0
    0.50000000000000    0.00000000000000    0.50000000000000     0
