Ni - (111) + CO on-top                  
   3.53000000000000     
     0.6966939695437013    0.0000000000000001   -0.0000000000000000
    -0.3483469847718519    0.6033546552004678    0.0000000000000000
     0.0000000000000000    0.0000000000000000    5.3526367422033605
   Ni
     5
Direct
 -0.0000000000000000 -0.0000000000000000  0.0068033800297332
  0.3333333300000021  0.6666666699999979  0.1138699122236408
  0.6666666699999979  0.3333333300000021  0.2222222199999990
  0.0000000000000000 -0.0000000000000000  0.3305745277763657
  0.3333333300000021  0.6666666699999979  0.4376410599702650
 
  0.00000000E+00  0.00000000E+00  0.00000000E+00
  0.00000000E+00  0.00000000E+00  0.00000000E+00
  0.00000000E+00  0.00000000E+00  0.00000000E+00
  0.00000000E+00  0.00000000E+00  0.00000000E+00
  0.00000000E+00  0.00000000E+00  0.00000000E+00
