fcc (100) surface                       
   3.53000000000000     
     0.5000000000000000    0.5000000000000000    0.0000000000000000
    -0.5000000000000000    0.5000000000000000    0.0000000000000000
     0.0000000000000000    0.0000000000000000    5.0000000000000000
   Ni
     5
Selective dynamics
Direct
  0.0000000000000000  0.0000000000000000  0.0000000000000000   F   F   F
  0.5000000000000000  0.5000000000000000  0.1000000000000014   F   F   F
  0.0000000000000000  0.0000000000000000  0.2000000000000028   F   F   F
  0.5000000000000000  0.5000000000000000  0.3004245271852446   T   T   T
  0.0000000000000000 -0.0000000000000000  0.3959414474619545   T   T   T
 
