C    P    O    H 
   1.00000000000000     
   7.2974033356000003   0.0000000000000000   0.0000000000000000
  -3.3255740842999999   6.4955978661999998   0.0000000000000000
   0.0000000000000000   0.0000000000000000  15.0000000000000000
C    P    O    H 
16  1  1  1  
Direct
  0.9919618776519949  0.9918629548683100  0.4135561976707290  
  0.1032694099623090  0.2013629039410670  0.4020274403762300  
  0.0154978519972744  0.3340874587238570  0.4179120714430480  
  0.1298463991678460  0.5568304963544221  0.4267522954824660  
  0.0133919922872252  0.6662365203394029  0.4288015850952220  
  0.1112798254033650  0.8820321449141491  0.4185936736674730  
  0.3233242804976870  0.0020626335496274  0.4191907031965910  
  0.4723891569006330  0.5804618561903470  0.4546761786606980  
  0.3499506137520710  0.6789169693667820  0.4350042570216460  
  0.4511096772741400  0.9044175779128170  0.4299587849641990  
  0.6737593548669660  0.0127794752830894  0.4329046174108700  
  0.7983754511807249  0.2336936129487770  0.4363229402526510  
  0.7087119113513650  0.3558048203058210  0.4667461713776080  
  0.8008227788439020  0.5670221769859010  0.4502862423659550  
  0.6849261861853150  0.6811848530282630  0.4490286769679560  
  0.7803763168906530  0.8941407246608580  0.4302155986162500  
  0.3661601009157990  0.2668064287034750  0.4095608778875220  
  0.3666944868223750  0.3527537914391700  0.5108049038512020  
  0.5845993757120310  0.2870622835175850  0.5144565471833430  
