# Don't Edit This Line!  0.020  0.040   56   99   3  36  21  42
   155
Reciprocal lattice
    0.00000000000000    0.00000000000000    0.00000000000000     1
    0.04347826086957    0.00000000000000    0.00000000000000     6
    0.08695652173913    0.00000000000000    0.00000000000000     6
    0.13043478260870    0.00000000000000    0.00000000000000     6
    0.17391304347826    0.00000000000000    0.00000000000000     6
    0.21739130434783    0.00000000000000    0.00000000000000     6
    0.26086956521739    0.00000000000000    0.00000000000000     6
    0.30434782608696    0.00000000000000    0.00000000000000     6
    0.34782608695652    0.00000000000000    0.00000000000000     6
    0.39130434782609    0.00000000000000    0.00000000000000     6
    0.43478260869565    0.00000000000000    0.00000000000000     6
    0.47826086956522    0.00000000000000    0.00000000000000     6
    0.04347826086957    0.04347826086957    0.00000000000000     6
    0.08695652173913    0.04347826086957    0.00000000000000    12
    0.13043478260870    0.04347826086957    0.00000000000000    12
    0.17391304347826    0.04347826086957    0.00000000000000    12
    0.21739130434783    0.04347826086957    0.00000000000000    12
    0.26086956521739    0.04347826086957    0.00000000000000    12
    0.30434782608696    0.04347826086957    0.00000000000000    12
    0.34782608695652    0.04347826086957    0.00000000000000    12
    0.39130434782609    0.04347826086957    0.00000000000000    12
    0.43478260869565    0.04347826086957    0.00000000000000    12
    0.47826086956522    0.04347826086957    0.00000000000000     6
    0.08695652173913    0.08695652173913    0.00000000000000     6
    0.13043478260870    0.08695652173913    0.00000000000000    12
    0.17391304347826    0.08695652173913    0.00000000000000    12
    0.21739130434783    0.08695652173913    0.00000000000000    12
    0.26086956521739    0.08695652173913    0.00000000000000    12
    0.30434782608696    0.08695652173913    0.00000000000000    12
    0.34782608695652    0.08695652173913    0.00000000000000    12
    0.39130434782609    0.08695652173913    0.00000000000000    12
    0.43478260869565    0.08695652173913    0.00000000000000    12
    0.13043478260870    0.13043478260870    0.00000000000000     6
    0.17391304347826    0.13043478260870    0.00000000000000    12
    0.21739130434783    0.13043478260870    0.00000000000000    12
    0.26086956521739    0.13043478260870    0.00000000000000    12
    0.30434782608696    0.13043478260870    0.00000000000000    12
    0.34782608695652    0.13043478260870    0.00000000000000    12
    0.39130434782609    0.13043478260870    0.00000000000000    12
    0.43478260869565    0.13043478260870    0.00000000000000     6
    0.17391304347826    0.17391304347826    0.00000000000000     6
    0.21739130434783    0.17391304347826    0.00000000000000    12
    0.26086956521739    0.17391304347826    0.00000000000000    12
    0.30434782608696    0.17391304347826    0.00000000000000    12
    0.34782608695652    0.17391304347826    0.00000000000000    12
    0.39130434782609    0.17391304347826    0.00000000000000    12
    0.21739130434783    0.21739130434783    0.00000000000000     6
    0.26086956521739    0.21739130434783    0.00000000000000    12
    0.30434782608696    0.21739130434783    0.00000000000000    12
    0.34782608695652    0.21739130434783    0.00000000000000    12
    0.39130434782609    0.21739130434783    0.00000000000000     6
    0.26086956521739    0.26086956521739    0.00000000000000     6
    0.30434782608696    0.26086956521739    0.00000000000000    12
    0.34782608695652    0.26086956521739    0.00000000000000    12
    0.30434782608696    0.30434782608696    0.00000000000000     6
    0.34782608695652    0.30434782608696    0.00000000000000     6
    0.00000000000000    0.00000000000000    0.00000000000000     0
    0.01428571428571    0.00000000000000    0.00000000000000     0
    0.02857142857143    0.00000000000000    0.00000000000000     0
    0.04285714285714    0.00000000000000    0.00000000000000     0
    0.05714285714286    0.00000000000000    0.00000000000000     0
    0.07142857142857    0.00000000000000    0.00000000000000     0
    0.08571428571429    0.00000000000000    0.00000000000000     0
    0.10000000000000    0.00000000000000    0.00000000000000     0
    0.11428571428571    0.00000000000000    0.00000000000000     0
    0.12857142857143    0.00000000000000    0.00000000000000     0
    0.14285714285714    0.00000000000000    0.00000000000000     0
    0.15714285714286    0.00000000000000    0.00000000000000     0
    0.17142857142857    0.00000000000000    0.00000000000000     0
    0.18571428571429    0.00000000000000    0.00000000000000     0
    0.20000000000000    0.00000000000000    0.00000000000000     0
    0.21428571428571    0.00000000000000    0.00000000000000     0
    0.22857142857143    0.00000000000000    0.00000000000000     0
    0.24285714285714    0.00000000000000    0.00000000000000     0
    0.25714285714286    0.00000000000000    0.00000000000000     0
    0.27142857142857    0.00000000000000    0.00000000000000     0
    0.28571428571429    0.00000000000000    0.00000000000000     0
    0.30000000000000    0.00000000000000    0.00000000000000     0
    0.31428571428571    0.00000000000000    0.00000000000000     0
    0.32857142857143    0.00000000000000    0.00000000000000     0
    0.34285714285714    0.00000000000000    0.00000000000000     0
    0.35714285714286    0.00000000000000    0.00000000000000     0
    0.37142857142857    0.00000000000000    0.00000000000000     0
    0.38571428571429    0.00000000000000    0.00000000000000     0
    0.40000000000000    0.00000000000000    0.00000000000000     0
    0.41428571428571    0.00000000000000    0.00000000000000     0
    0.42857142857143    0.00000000000000    0.00000000000000     0
    0.44285714285714    0.00000000000000    0.00000000000000     0
    0.45714285714286    0.00000000000000    0.00000000000000     0
    0.47142857142857    0.00000000000000    0.00000000000000     0
    0.48571428571429    0.00000000000000    0.00000000000000     0
    0.50000000000000    0.00000000000000    0.00000000000000     0
    0.50000000000000    0.00000000000000    0.00000000000000     0
    0.49166666666500    0.01666666666500    0.00000000000000     0
    0.48333333333000    0.03333333333000    0.00000000000000     0
    0.47499999999500    0.04999999999500    0.00000000000000     0
    0.46666666666000    0.06666666666000    0.00000000000000     0
    0.45833333332500    0.08333333332500    0.00000000000000     0
    0.44999999999000    0.09999999999000    0.00000000000000     0
    0.44166666665500    0.11666666665500    0.00000000000000     0
    0.43333333332000    0.13333333332000    0.00000000000000     0
    0.42499999998500    0.14999999998500    0.00000000000000     0
    0.41666666665000    0.16666666665000    0.00000000000000     0
    0.40833333331500    0.18333333331500    0.00000000000000     0
    0.39999999998000    0.19999999998000    0.00000000000000     0
    0.39166666664500    0.21666666664500    0.00000000000000     0
    0.38333333331000    0.23333333331000    0.00000000000000     0
    0.37499999997500    0.24999999997500    0.00000000000000     0
    0.36666666664000    0.26666666664000    0.00000000000000     0
    0.35833333330500    0.28333333330500    0.00000000000000     0
    0.34999999997000    0.29999999997000    0.00000000000000     0
    0.34166666663500    0.31666666663500    0.00000000000000     0
    0.33333333330000    0.33333333330000    0.00000000000000     0
    0.33333333330000    0.33333333330000    0.00000000000000     0
    0.32520325200000    0.32520325200000    0.00000000000000     0
    0.31707317070000    0.31707317070000    0.00000000000000     0
    0.30894308940000    0.30894308940000    0.00000000000000     0
    0.30081300810000    0.30081300810000    0.00000000000000     0
    0.29268292680000    0.29268292680000    0.00000000000000     0
    0.28455284550000    0.28455284550000    0.00000000000000     0
    0.27642276420000    0.27642276420000    0.00000000000000     0
    0.26829268290000    0.26829268290000    0.00000000000000     0
    0.26016260160000    0.26016260160000    0.00000000000000     0
    0.25203252030000    0.25203252030000    0.00000000000000     0
    0.24390243900000    0.24390243900000    0.00000000000000     0
    0.23577235770000    0.23577235770000    0.00000000000000     0
    0.22764227640000    0.22764227640000    0.00000000000000     0
    0.21951219510000    0.21951219510000    0.00000000000000     0
    0.21138211380000    0.21138211380000    0.00000000000000     0
    0.20325203250000    0.20325203250000    0.00000000000000     0
    0.19512195120000    0.19512195120000    0.00000000000000     0
    0.18699186990000    0.18699186990000    0.00000000000000     0
    0.17886178860000    0.17886178860000    0.00000000000000     0
    0.17073170730000    0.17073170730000    0.00000000000000     0
    0.16260162600000    0.16260162600000    0.00000000000000     0
    0.15447154470000    0.15447154470000    0.00000000000000     0
    0.14634146340000    0.14634146340000    0.00000000000000     0
    0.13821138210000    0.13821138210000    0.00000000000000     0
    0.13008130080000    0.13008130080000    0.00000000000000     0
    0.12195121950000    0.12195121950000    0.00000000000000     0
    0.11382113820000    0.11382113820000    0.00000000000000     0
    0.10569105690000    0.10569105690000    0.00000000000000     0
    0.09756097560000    0.09756097560000    0.00000000000000     0
    0.08943089430000    0.08943089430000    0.00000000000000     0
    0.08130081300000    0.08130081300000    0.00000000000000     0
    0.07317073170000    0.07317073170000    0.00000000000000     0
    0.06504065040000    0.06504065040000    0.00000000000000     0
    0.05691056910000    0.05691056910000    0.00000000000000     0
    0.04878048780000    0.04878048780000    0.00000000000000     0
    0.04065040650000    0.04065040650000    0.00000000000000     0
    0.03252032520000    0.03252032520000    0.00000000000000     0
    0.02439024390000    0.02439024390000    0.00000000000000     0
    0.01626016260000    0.01626016260000    0.00000000000000     0
    0.00813008130000    0.00813008130000    0.00000000000000     0
    0.00000000000000    0.00000000000000    0.00000000000000     0
