C    P    O    H 
   1.00000000000000     
   7.2974033356000003   0.0000000000000000   0.0000000000000000
  -3.3255740842999999   6.4955978661999998   0.0000000000000000
   0.0000000000000000   0.0000000000000000  15.0000000000000000
C    P    O    H 
16  1  1  1  
Direct
  0.9923290720356230  0.9911393089043230  0.4136571217729070  
  0.1032781988566780  0.2010551326138530  0.4043952497747370  
  0.0147072296265875  0.3330930631542090  0.4181694147706030  
  0.1299310943535300  0.5557708257582230  0.4257882983336150  
  0.0143282766766148  0.6658525157412070  0.4272264009240700  
  0.1123792768242000  0.8819574251774750  0.4178772628111960  
  0.3243646739894500  0.0017807733165043  0.4197898879385280  
  0.4719312799308710  0.5755012838609730  0.4496171104415010  
  0.3499789620125430  0.6761259666573169  0.4330292012603040  
  0.4511693510737020  0.9027314861485540  0.4296395468552990  
  0.6736351494493820  0.0112239317420730  0.4325840796594280  
  0.7974534264074440  0.2323274121250730  0.4361090070050860  
  0.7090737657367470  0.3558414145057330  0.4659420530897980  
  0.8015909377916590  0.5662182820638580  0.4479123767592630  
  0.6843009637232170  0.6786605429128870  0.4454772867443990  
  0.7801979417279340  0.8926116626822920  0.4287875814285660  
  0.3626489949577870  0.2676197095579060  0.4193255944621370  
  0.3592752735074570  0.3342181048390880  0.5203734166169840  
  0.5875317588130290  0.2906604007051570  0.5151686330515730  
