Global Parameters
  ISTART =  1            (Read existing wavefunction; if there)
  # ISPIN =  2           (Spin polarised DFT) 
  # ICHARG =  11         (Non-self-consistent: GGA/LDA band structures)
  LREAL  = Auto          (Projection operators: automatic)
  # ENCUT  =  400        (Cut-off energy for plane wave basis set, in eV) 
  PREC   =  Normal       (Precision level)  
  EDIFF  = 0.1E-05       (Stopping-criterion for ELM)   
  LWAVE  = .TRUE.        (Write WAVECAR or not)
  LCHARG = .TRUE.        (Write CHGCAR or not) 
  ADDGRID= .TRUE.        (Increase grid; helps GGA convergence) 
  # LVTOT  = .TRUE.      (Write total electrostatic potential into LOCPOT or not)
  # LVHAR  = .TRUE.      (Write ionic + Hartree electrostatic potential into LOCPOT or not)
  # NELECT =             (No. of electrons: charged cells; be careful)
  # LPLANE = .TRUE.      (Real space distribution; supercells)
  # NPAR   = 4           (Max is no. nodes; don't set for hybrids)
 
Lattice Relaxation
  NSW    =  300          (number of ionic steps. Make it odd.) 
  ISMEAR =  0            (gaussian smearing method ) 
  SIGMA  =  0.05         (please check the width of the smearing) 
  IBRION =  2            (Algorithm: 0-MD; 1-Quasi-New; 2-CG)
  ISIF   =  3            (optimize atomic coordinates and lattice parameters)
  EDIFFG = -1.5E-02      (Ionic convergence; eV/AA)
  PREC   =  High         (Precision level)  
 
