C    P    O    H 
   1.00000000000000     
   7.2974033356000003   0.0000000000000000   0.0000000000000000
  -3.3255740842999999   6.4955978661999998   0.0000000000000000
   0.0000000000000000   0.0000000000000000  15.0000000000000000
C    P    O    H 
16  1  1  1  
Direct
  0.9915946832683670  0.9925866008322970  0.4134552735685520  
  0.1032606210679390  0.2016706752682820  0.3996596309777230  
  0.0162884743679612  0.3350818542935060  0.4176547281154940  
  0.1297617039821620  0.5578901669506210  0.4277162926313170  
  0.0124557078978356  0.6666205249375990  0.4303767692663740  
  0.1101803739825300  0.8821068646508220  0.4193100845237510  
  0.3222838870059230  0.0023444937827506  0.4185915184546540  
  0.4728470338703940  0.5854224285197200  0.4597352468798950  
  0.3499222654916000  0.6817079720762460  0.4369793127829880  
  0.4510500034745770  0.9061036696770800  0.4302780230731000  
  0.6738835602845510  0.0143350188241058  0.4332251551623120  
  0.7992974759540060  0.2350598137724800  0.4365368735002160  
  0.7083500569659830  0.3557682261059090  0.4675502896654180  
  0.8000546198961440  0.5678260719079450  0.4526601079726480  
  0.6855514086474130  0.6837091631436391  0.4525800671915120  
  0.7805546920533710  0.8956697866394240  0.4316436158039350  
  0.3696712068738110  0.2659931478490450  0.3997961613129060  
  0.3741137001372930  0.3712894780392520  0.5012363910854210  
  0.5816669926110341  0.2834641663300130  0.5137444613151130  
