SYSTEM = MBene

ISTATRT = 0      # 是不是初始算
ICHARG = 2       # 如何构造初始电荷密度,初始算默认为2
ENCUT = 450	     # 截断能 
EDIFF = 1E-05    # 收敛标准
ISMEAR = 0       # 什么体系，金属(1)、半导体(0)、绝缘体(0)...
SIGMA = 0.05     # 范围


ISIF = 2         # 固定晶格
LREAL = Auto     # 投影算法是
GGA = PE         # 交换关联函数
PREC = Accurate  # 精确度
ALGO = Fast      # 电子优化算法


#NSW = 100   # 总步数 
#IBRION = 2  # 原子如何移动
#POTIM = 0.2 # 移动的步长

# frequence
NSW = 1
IBRION = 5
POTIM = 0.2
NFREE = 2


# spin
ISPIN = 2
MAGMOM = 8*3.0 8*0 

# + U
LDAU = .TRUE.
LDAUTYPE = 2
LDAUL = 2 -1  # no -> -1 p -> 1 d -> 2 f -> 3 
LDAUU = 5 0 
LDAUJ = 0 0 



