(1) SYSTEM= Materials
   ISTART =1
   ISPIN=1

(2) Electronic Relaxation
   ISMEAR =  0
   SIGMA  =  0.05
   NELM   =   60
   EDIFF  =  1E-07

(5) Global parameter
   LREAL=.FALSE.
   PREC=A
   LWAVE = T
   LCHARG = F
   LORBIT = 11
