Parameters to Generate KPOINTS (Don't Edit This Line):   0.020  0.020   19   99   3  36  21  42
   118
Reciprocal lattice
    0.00000000000000    0.00000000000000    0.00000000000000     1
    0.08333333333333    0.00000000000000    0.00000000000000     6
    0.16666666666667    0.00000000000000    0.00000000000000     6
    0.25000000000000    0.00000000000000    0.00000000000000     6
    0.33333333333333    0.00000000000000    0.00000000000000     6
    0.41666666666667    0.00000000000000    0.00000000000000     6
    0.50000000000000    0.00000000000000    0.00000000000000     3
    0.08333333333333    0.08333333333333    0.00000000000000     6
    0.16666666666667    0.08333333333333    0.00000000000000    12
    0.25000000000000    0.08333333333333    0.00000000000000    12
    0.33333333333333    0.08333333333333    0.00000000000000    12
    0.41666666666667    0.08333333333333    0.00000000000000    12
    0.16666666666667    0.16666666666667    0.00000000000000     6
    0.25000000000000    0.16666666666667    0.00000000000000    12
    0.33333333333333    0.16666666666667    0.00000000000000    12
    0.41666666666667    0.16666666666667    0.00000000000000     6
    0.25000000000000    0.25000000000000    0.00000000000000     6
    0.33333333333333    0.25000000000000    0.00000000000000    12
    0.33333333333333    0.33333333333333    0.00000000000000     2
    0.00000000000000    0.00000000000000    0.00000000000000     0
    0.02857142857143    0.00000000000000    0.00000000000000     0
    0.05714285714286    0.00000000000000    0.00000000000000     0
    0.08571428571429    0.00000000000000    0.00000000000000     0
    0.11428571428571    0.00000000000000    0.00000000000000     0
    0.14285714285714    0.00000000000000    0.00000000000000     0
    0.17142857142857    0.00000000000000    0.00000000000000     0
    0.20000000000000    0.00000000000000    0.00000000000000     0
    0.22857142857143    0.00000000000000    0.00000000000000     0
    0.25714285714286    0.00000000000000    0.00000000000000     0
    0.28571428571429    0.00000000000000    0.00000000000000     0
    0.31428571428571    0.00000000000000    0.00000000000000     0
    0.34285714285714    0.00000000000000    0.00000000000000     0
    0.37142857142857    0.00000000000000    0.00000000000000     0
    0.40000000000000    0.00000000000000    0.00000000000000     0
    0.42857142857143    0.00000000000000    0.00000000000000     0
    0.45714285714286    0.00000000000000    0.00000000000000     0
    0.48571428571429    0.00000000000000    0.00000000000000     0
   -0.48571428571429    0.00000000000000    0.00000000000000     0
   -0.45714285714286    0.00000000000000    0.00000000000000     0
   -0.42857142857143    0.00000000000000    0.00000000000000     0
   -0.40000000000000    0.00000000000000    0.00000000000000     0
   -0.37142857142857    0.00000000000000    0.00000000000000     0
   -0.34285714285714    0.00000000000000    0.00000000000000     0
   -0.31428571428571    0.00000000000000    0.00000000000000     0
   -0.28571428571429    0.00000000000000    0.00000000000000     0
   -0.25714285714286    0.00000000000000    0.00000000000000     0
   -0.22857142857143    0.00000000000000    0.00000000000000     0
   -0.20000000000000    0.00000000000000    0.00000000000000     0
   -0.17142857142857    0.00000000000000    0.00000000000000     0
   -0.14285714285714    0.00000000000000    0.00000000000000     0
   -0.11428571428571    0.00000000000000    0.00000000000000     0
   -0.08571428571429    0.00000000000000    0.00000000000000     0
   -0.05714285714286    0.00000000000000    0.00000000000000     0
   -0.02857142857143    0.00000000000000    0.00000000000000     0
    0.00000000000000    0.00000000000000    0.00000000000000     0
    0.00000000000000    0.00000000000000    0.00000000000000     0
   -0.01666666667000    0.03333333333000    0.00000000000000     0
   -0.03333333334000    0.06666666666000    0.00000000000000     0
   -0.05000000001000    0.09999999999000    0.00000000000000     0
   -0.06666666668000    0.13333333332000    0.00000000000000     0
   -0.08333333335000    0.16666666665000    0.00000000000000     0
   -0.10000000002000    0.19999999998000    0.00000000000000     0
   -0.11666666669000    0.23333333331000    0.00000000000000     0
   -0.13333333336000    0.26666666664000    0.00000000000000     0
   -0.15000000003000    0.29999999997000    0.00000000000000     0
   -0.16666666670000    0.33333333330000    0.00000000000000     0
   -0.18333333337000    0.36666666663000    0.00000000000000     0
   -0.20000000004000    0.39999999996000    0.00000000000000     0
   -0.21666666671000    0.43333333329000    0.00000000000000     0
   -0.23333333338000    0.46666666662000    0.00000000000000     0
   -0.25000000005000    0.49999999995000    0.00000000000000     0
   -0.26666666672000   -0.46666666672000    0.00000000000000     0
   -0.28333333339000   -0.43333333339000    0.00000000000000     0
   -0.30000000006000   -0.40000000006000    0.00000000000000     0
   -0.31666666673000   -0.36666666673000    0.00000000000000     0
   -0.33333333340000   -0.33333333340000    0.00000000000000     0
   -0.33333333340000   -0.33333333340000    0.00000000000000     0
   -0.34959349600000   -0.34959349600000    0.00000000000000     0
   -0.36585365860000   -0.36585365860000    0.00000000000000     0
   -0.38211382120000   -0.38211382120000    0.00000000000000     0
   -0.39837398380000   -0.39837398380000    0.00000000000000     0
   -0.41463414640000   -0.41463414640000    0.00000000000000     0
   -0.43089430900000   -0.43089430900000    0.00000000000000     0
   -0.44715447160000   -0.44715447160000    0.00000000000000     0
   -0.46341463420000   -0.46341463420000    0.00000000000000     0
   -0.47967479680000   -0.47967479680000    0.00000000000000     0
   -0.49593495940000   -0.49593495940000    0.00000000000000     0
    0.48780487800000    0.48780487800000    0.00000000000000     0
    0.47154471540000    0.47154471540000    0.00000000000000     0
    0.45528455280000    0.45528455280000    0.00000000000000     0
    0.43902439020000    0.43902439020000    0.00000000000000     0
    0.42276422760000    0.42276422760000    0.00000000000000     0
    0.40650406500000    0.40650406500000    0.00000000000000     0
    0.39024390240000    0.39024390240000    0.00000000000000     0
    0.37398373980000    0.37398373980000    0.00000000000000     0
    0.35772357720000    0.35772357720000    0.00000000000000     0
    0.34146341460000    0.34146341460000    0.00000000000000     0
    0.32520325200000    0.32520325200000    0.00000000000000     0
    0.30894308940000    0.30894308940000    0.00000000000000     0
    0.29268292680000    0.29268292680000    0.00000000000000     0
    0.27642276420000    0.27642276420000    0.00000000000000     0
    0.26016260160000    0.26016260160000    0.00000000000000     0
    0.24390243900000    0.24390243900000    0.00000000000000     0
    0.22764227640000    0.22764227640000    0.00000000000000     0
    0.21138211380000    0.21138211380000    0.00000000000000     0
    0.19512195120000    0.19512195120000    0.00000000000000     0
    0.17886178860000    0.17886178860000    0.00000000000000     0
    0.16260162600000    0.16260162600000    0.00000000000000     0
    0.14634146340000    0.14634146340000    0.00000000000000     0
    0.13008130080000    0.13008130080000    0.00000000000000     0
    0.11382113820000    0.11382113820000    0.00000000000000     0
    0.09756097560000    0.09756097560000    0.00000000000000     0
    0.08130081300000    0.08130081300000    0.00000000000000     0
    0.06504065040000    0.06504065040000    0.00000000000000     0
    0.04878048780000    0.04878048780000    0.00000000000000     0
    0.03252032520000    0.03252032520000    0.00000000000000     0
    0.01626016260000    0.01626016260000    0.00000000000000     0
    0.00000000000000    0.00000000000000    0.00000000000000     0
