Ni - (111) + CO ontop                   
   3.53000000000000     
     0.7071067800000000    0.0000000000000000    0.0000000000000000
    -0.3535533900000000    0.6123724000000000    0.0000000000000000
     0.0000000000000000    0.0000000000000000    5.1961523999999999
   Ni   C    O 
     5     1     1
Selective dynamics
Direct
  0.0000000000000000  0.0000000000000000  0.0000000000000000   F   F   F
  0.3333333300000021  0.6666666699999979  0.1111111100000031   F   F   F
  0.6666666699999979  0.3333333300000021  0.2222222199999990   F   F   F
  0.0000000000000000  0.0000000000000000  0.3330391292438293   T   T   T
  0.3333333300000021  0.6666666699999979  0.4445422014835714   T   T   T
  0.3333333300000021  0.6666666699999979  0.5402025044116243   T   T   T
  0.3333333300000021  0.6666666699999979  0.6031536532245951   T   T   T
 
  0.00000000E+00  0.00000000E+00  0.00000000E+00
  0.00000000E+00  0.00000000E+00  0.00000000E+00
  0.00000000E+00  0.00000000E+00  0.00000000E+00
  0.00000000E+00  0.00000000E+00  0.00000000E+00
  0.00000000E+00  0.00000000E+00  0.00000000E+00
  0.00000000E+00  0.00000000E+00  0.00000000E+00
  0.00000000E+00  0.00000000E+00  0.00000000E+00
