C    P    O    H 
   1.00000000000000     
   7.2974033356000003   0.0000000000000000   0.0000000000000000
  -3.3255740842999999   6.4955978661999998   0.0000000000000000
   0.0000000000000000   0.0000000000000000  15.0000000000000000
C    P    O    H 
16  1  1  1  
Direct
  0.9926962664192520  0.9904156629403360  0.4137580458750850  
  0.1032869877510480  0.2007473612866380  0.4067630591732440  
  0.0139166072559007  0.3320986675845600  0.4184267580981570  
  0.1300157895392150  0.5547111551620250  0.4248243011847630  
  0.0152645610660045  0.6654685111430110  0.4256512167529180  
  0.1134787282450350  0.8818827054408021  0.4171608519549180  
  0.3254050674812130  0.0014989130833811  0.4203890726804640  
  0.4714734029611090  0.5705407115315990  0.4445580422223050  
  0.3500073102730140  0.6733349639478520  0.4310541454989620  
  0.4512290248732640  0.9010453943842900  0.4293203087463980  
  0.6735109440317970  0.0096683882010566  0.4322635419079860  
  0.7965314016341620  0.2309612113013700  0.4358950737575210  
  0.7094356201221290  0.3558780087056450  0.4651379348019870  
  0.8023590967394160  0.5654143871418140  0.4455385111525700  
  0.6836757412611190  0.6761362327975110  0.4419258965208430  
  0.7800195665652150  0.8910826007037260  0.4273595642408810  
  0.3591378889997760  0.2684329904123360  0.4290903110367520  
  0.3518560601925390  0.3156824182390070  0.5299419293827650  
  0.5904641419140260  0.2942585178927290  0.5158807189198030  
