Generated by cif2cell 1.1.5 from COD reference: 9008845. GaAs :  Wyckoff, R. W. G., Crystal Structures 1, 85-237 (1963).
   5.653700
  0.000000000000000   0.500000000000000   0.500000000000000
  0.500000000000000   0.000000000000000   0.500000000000000
  0.500000000000000   0.500000000000000   0.000000000000000
  As  Ga
   1   1
Direct
  0.250000000000000   0.250000000000000   0.250000000000000 
  0.000000000000000   0.000000000000000   0.000000000000000 
