optAu111                                
   1.00000000000000     
     5.8734002112999999    0.0000000000000000    0.0000000000000000
    -2.9367001057000000    5.0865137895999997    0.0000000000000000
     0.0000000000000000    0.0000000000000000   24.5911998748999991
   Au   O 
    20     1
Selective dynamics
Direct
  0.3333300050000005  0.6666700239999983  0.0406600009999991   F   F   F
  0.0000000000000000  0.0000000000000000  0.1381700040000027   F   F   F
  0.6653250915679436  0.3330852653514071  0.2343285337016425   T   T   T
  0.3306109661999699  0.6659553889072996  0.3350215707108433   T   T   T
  0.9959653845570742  0.9986796460148000  0.4220888605700353   T   T   T
  0.3333300050000005  0.1666699949999995  0.0406600009999991   F   F   F
  0.0000000000000000  0.5000000000000000  0.1381700040000027   F   F   F
  0.6636474638912730  0.8322072232224258  0.2348741889544499   T   T   T
  0.3347102508815638  0.1681547238101189  0.3305668169627722   T   T   T
  0.0183883968080423  0.5095609025116801  0.4334264092091544   T   T   T
  0.8333299760000017  0.1666699949999995  0.0406600009999991   F   F   F
  0.5000000000000000  0.5000000000000000  0.1381700040000027   F   F   F
  0.1667946649242680  0.8318986927730734  0.2349517312979899   T   T   T
  0.8280906699596642  0.1680928817739300  0.3304150707693125   T   T   T
  0.4855761178584288  0.5094906480118695  0.4335480847390087   T   T   T
  0.8333299760000017  0.6666700239999983  0.0406600009999991   F   F   F
  0.5000000000000000  0.0000000000000000  0.1381700040000027   F   F   F
  0.1666821780632404  0.3353780643421302  0.2349386310349786   T   T   T
  0.8283694449413233  0.6616672485593469  0.3304079658335795   T   T   T
  0.4855366373924781  0.9767780396751462  0.4335568480559289   T   T   T
  0.6634055467709317  0.3320893067016470  0.4776686956495411   T   T   T
 
  0.00000000E+00  0.00000000E+00  0.00000000E+00
  0.00000000E+00  0.00000000E+00  0.00000000E+00
  0.00000000E+00  0.00000000E+00  0.00000000E+00
  0.00000000E+00  0.00000000E+00  0.00000000E+00
  0.00000000E+00  0.00000000E+00  0.00000000E+00
  0.00000000E+00  0.00000000E+00  0.00000000E+00
  0.00000000E+00  0.00000000E+00  0.00000000E+00
  0.00000000E+00  0.00000000E+00  0.00000000E+00
  0.00000000E+00  0.00000000E+00  0.00000000E+00
  0.00000000E+00  0.00000000E+00  0.00000000E+00
  0.00000000E+00  0.00000000E+00  0.00000000E+00
  0.00000000E+00  0.00000000E+00  0.00000000E+00
  0.00000000E+00  0.00000000E+00  0.00000000E+00
  0.00000000E+00  0.00000000E+00  0.00000000E+00
  0.00000000E+00  0.00000000E+00  0.00000000E+00
  0.00000000E+00  0.00000000E+00  0.00000000E+00
  0.00000000E+00  0.00000000E+00  0.00000000E+00
  0.00000000E+00  0.00000000E+00  0.00000000E+00
  0.00000000E+00  0.00000000E+00  0.00000000E+00
  0.00000000E+00  0.00000000E+00  0.00000000E+00
  0.00000000E+00  0.00000000E+00  0.00000000E+00
