optAu111                                
   1.00000000000000     
     5.8734002112999999    0.0000000000000000    0.0000000000000000
    -2.9367001057000000    5.0865137895999997    0.0000000000000000
     0.0000000000000000    0.0000000000000000   24.5911998748999991
   Au   O 
    20     1
Selective dynamics
Direct
  0.3333300050000005  0.6666700239999983  0.0406600009999991   F   F   F
  0.0000000000000000  0.0000000000000000  0.1381700040000027   F   F   F
  0.6653250915679463  0.3330852653514053  0.2343285337016400   T   T   T
  0.3306109661999675  0.6659553889073019  0.3350215707108400   T   T   T
  0.9959653845570750 -0.0013203539851987  0.4220888605700350   T   T   T
  0.3333300050000005  0.1666699949999995  0.0406600009999991   F   F   F
  0.0000000000000000  0.5000000000000000  0.1381700040000027   F   F   F
  0.6636474638912752  0.8322072232224281  0.2348741889544513   T   T   T
  0.3347102508815614  0.1681547238101159  0.3305668169627732   T   T   T
  0.0183883968080455  0.5095609025116808  0.4334264092091549   T   T   T
  0.8333299760000017  0.1666699949999995  0.0406600009999991   F   F   F
  0.5000000000000000  0.5000000000000000  0.1381700040000027   F   F   F
  0.1667946649242655  0.8318986927730720  0.2349517312979921   T   T   T
  0.8280906699596630  0.1680928817739269  0.3304150707693121   T   T   T
  0.4855761178584304  0.5094906480118703  0.4335480847390056   T   T   T
  0.8333299760000017  0.6666700239999983  0.0406600009999991   F   F   F
  0.5000000000000000  0.0000000000000000  0.1381700040000027   F   F   F
  0.1666821780632411  0.3353780643421326  0.2349386310349818   T   T   T
  0.8283694449413217  0.6616672485593470  0.3304079658335785   T   T   T
  0.4855366373924776 -0.0232219603248505  0.4335568480559263   T   T   T
  0.6634055467709311  0.3320893067016474  0.4776686956495376   T   T   T
 
  0.00000000E+00  0.00000000E+00  0.00000000E+00
  0.00000000E+00  0.00000000E+00  0.00000000E+00
  0.00000000E+00  0.00000000E+00  0.00000000E+00
  0.00000000E+00  0.00000000E+00  0.00000000E+00
  0.00000000E+00  0.00000000E+00  0.00000000E+00
  0.00000000E+00  0.00000000E+00  0.00000000E+00
  0.00000000E+00  0.00000000E+00  0.00000000E+00
  0.00000000E+00  0.00000000E+00  0.00000000E+00
  0.00000000E+00  0.00000000E+00  0.00000000E+00
  0.00000000E+00  0.00000000E+00  0.00000000E+00
  0.00000000E+00  0.00000000E+00  0.00000000E+00
  0.00000000E+00  0.00000000E+00  0.00000000E+00
  0.00000000E+00  0.00000000E+00  0.00000000E+00
  0.00000000E+00  0.00000000E+00  0.00000000E+00
  0.00000000E+00  0.00000000E+00  0.00000000E+00
  0.00000000E+00  0.00000000E+00  0.00000000E+00
  0.00000000E+00  0.00000000E+00  0.00000000E+00
  0.00000000E+00  0.00000000E+00  0.00000000E+00
  0.00000000E+00  0.00000000E+00  0.00000000E+00
  0.00000000E+00  0.00000000E+00  0.00000000E+00
  0.00000000E+00  0.00000000E+00  0.00000000E+00
