KMesh:   61   61    1
    3721
Reciprocal lattice
     -0.50000000     -0.50000000      0.00000000       1
     -0.48333335     -0.50000000      0.00000000       1
     -0.46666667     -0.50000000      0.00000000       1
     -0.44999999     -0.50000000      0.00000000       1
     -0.43333334     -0.50000000      0.00000000       1
     -0.41666669     -0.50000000      0.00000000       1
     -0.40000001     -0.50000000      0.00000000       1
     -0.38333333     -0.50000000      0.00000000       1
     -0.36666667     -0.50000000      0.00000000       1
     -0.35000002     -0.50000000      0.00000000       1
     -0.33333334     -0.50000000      0.00000000       1
     -0.31666666     -0.50000000      0.00000000       1
     -0.30000001     -0.50000000      0.00000000       1
     -0.28333336     -0.50000000      0.00000000       1
     -0.26666668     -0.50000000      0.00000000       1
     -0.25000000     -0.50000000      0.00000000       1
     -0.23333335     -0.50000000      0.00000000       1
     -0.21666670     -0.50000000      0.00000000       1
     -0.20000002     -0.50000000      0.00000000       1
     -0.18333334     -0.50000000      0.00000000       1
     -0.16666669     -0.50000000      0.00000000       1
     -0.15000004     -0.50000000      0.00000000       1
     -0.13333336     -0.50000000      0.00000000       1
     -0.11666667     -0.50000000      0.00000000       1
     -0.10000002     -0.50000000      0.00000000       1
     -0.08333337     -0.50000000      0.00000000       1
     -0.06666669     -0.50000000      0.00000000       1
     -0.05000001     -0.50000000      0.00000000       1
     -0.03333336     -0.50000000      0.00000000       1
     -0.01666671     -0.50000000      0.00000000       1
     -0.00000003     -0.50000000      0.00000000       1
      0.01666665     -0.50000000      0.00000000       1
      0.03333330     -0.50000000      0.00000000       1
      0.04999995     -0.50000000      0.00000000       1
      0.06666660     -0.50000000      0.00000000       1
      0.08333331     -0.50000000      0.00000000       1
      0.09999996     -0.50000000      0.00000000       1
      0.11666662     -0.50000000      0.00000000       1
      0.13333333     -0.50000000      0.00000000       1
      0.14999998     -0.50000000      0.00000000       1
      0.16666663     -0.50000000      0.00000000       1
      0.18333328     -0.50000000      0.00000000       1
      0.19999993     -0.50000000      0.00000000       1
      0.21666664     -0.50000000      0.00000000       1
      0.23333329     -0.50000000      0.00000000       1
      0.24999994     -0.50000000      0.00000000       1
      0.26666665     -0.50000000      0.00000000       1
      0.28333330     -0.50000000      0.00000000       1
      0.29999995     -0.50000000      0.00000000       1
      0.31666660     -0.50000000      0.00000000       1
      0.33333325     -0.50000000      0.00000000       1
      0.34999996     -0.50000000      0.00000000       1
      0.36666662     -0.50000000      0.00000000       1
      0.38333327     -0.50000000      0.00000000       1
      0.39999998     -0.50000000      0.00000000       1
      0.41666663     -0.50000000      0.00000000       1
      0.43333328     -0.50000000      0.00000000       1
      0.44999993     -0.50000000      0.00000000       1
      0.46666658     -0.50000000      0.00000000       1
      0.48333329     -0.50000000      0.00000000       1
      0.50000000     -0.50000000      0.00000000       0
     -0.50000000     -0.48333332      0.00000000       1
     -0.48333332     -0.48333332      0.00000000       1
     -0.46666667     -0.48333332      0.00000000       1
     -0.44999999     -0.48333332      0.00000000       1
     -0.43333334     -0.48333332      0.00000000       1
     -0.41666669     -0.48333332      0.00000000       1
     -0.40000001     -0.48333332      0.00000000       1
     -0.38333333     -0.48333332      0.00000000       1
     -0.36666667     -0.48333332      0.00000000       1
     -0.35000002     -0.48333332      0.00000000       1
     -0.33333334     -0.48333332      0.00000000       1
     -0.31666666     -0.48333332      0.00000000       1
     -0.30000001     -0.48333332      0.00000000       1
     -0.28333336     -0.48333332      0.00000000       1
     -0.26666668     -0.48333332      0.00000000       1
     -0.25000000     -0.48333332      0.00000000       1
     -0.23333335     -0.48333332      0.00000000       1
     -0.21666670     -0.48333332      0.00000000       1
     -0.20000002     -0.48333332      0.00000000       1
     -0.18333334     -0.48333332      0.00000000       1
     -0.16666669     -0.48333332      0.00000000       1
     -0.15000004     -0.48333332      0.00000000       1
     -0.13333336     -0.48333332      0.00000000       1
     -0.11666667     -0.48333332      0.00000000       1
     -0.10000002     -0.48333332      0.00000000       1
     -0.08333337     -0.48333332      0.00000000       1
     -0.06666669     -0.48333332      0.00000000       1
     -0.05000001     -0.48333332      0.00000000       1
     -0.03333336     -0.48333332      0.00000000       1
     -0.01666671     -0.48333332      0.00000000       1
     -0.00000003     -0.48333332      0.00000000       1
      0.01666665     -0.48333332      0.00000000       1
      0.03333330     -0.48333332      0.00000000       1
      0.04999995     -0.48333332      0.00000000       1
      0.06666660     -0.48333332      0.00000000       1
      0.08333331     -0.48333332      0.00000000       1
      0.09999996     -0.48333332      0.00000000       1
      0.11666662     -0.48333332      0.00000000       1
      0.13333333     -0.48333332      0.00000000       1
      0.14999998     -0.48333332      0.00000000       1
      0.16666663     -0.48333332      0.00000000       1
      0.18333328     -0.48333332      0.00000000       1
      0.19999993     -0.48333332      0.00000000       1
      0.21666664     -0.48333332      0.00000000       1
      0.23333329     -0.48333332      0.00000000       1
      0.24999994     -0.48333332      0.00000000       1
      0.26666665     -0.48333332      0.00000000       1
      0.28333330     -0.48333332      0.00000000       1
      0.29999995     -0.48333332      0.00000000       1
      0.31666660     -0.48333332      0.00000000       1
      0.33333325     -0.48333332      0.00000000       1
      0.34999996     -0.48333332      0.00000000       1
      0.36666662     -0.48333332      0.00000000       1
      0.38333327     -0.48333332      0.00000000       1
      0.39999998     -0.48333332      0.00000000       1
      0.41666663     -0.48333332      0.00000000       1
      0.43333328     -0.48333332      0.00000000       1
      0.44999993     -0.48333332      0.00000000       1
      0.46666658     -0.48333332      0.00000000       1
      0.48333335     -0.48333332      0.00000000       1
      0.50000000     -0.48333332      0.00000000       0
     -0.50000000     -0.46666667      0.00000000       1
     -0.48333332     -0.46666667      0.00000000       1
     -0.46666667     -0.46666667      0.00000000       1
     -0.44999999     -0.46666667      0.00000000       1
     -0.43333334     -0.46666667      0.00000000       1
     -0.41666669     -0.46666667      0.00000000       1
     -0.40000001     -0.46666667      0.00000000       1
     -0.38333333     -0.46666667      0.00000000       1
     -0.36666667     -0.46666667      0.00000000       1
     -0.35000002     -0.46666667      0.00000000       1
     -0.33333334     -0.46666667      0.00000000       1
     -0.31666666     -0.46666667      0.00000000       1
     -0.30000001     -0.46666667      0.00000000       1
     -0.28333336     -0.46666667      0.00000000       1
     -0.26666668     -0.46666667      0.00000000       1
     -0.25000000     -0.46666667      0.00000000       1
     -0.23333335     -0.46666667      0.00000000       1
     -0.21666670     -0.46666667      0.00000000       1
     -0.20000002     -0.46666667      0.00000000       1
     -0.18333334     -0.46666667      0.00000000       1
     -0.16666669     -0.46666667      0.00000000       1
     -0.15000004     -0.46666667      0.00000000       1
     -0.13333336     -0.46666667      0.00000000       1
     -0.11666667     -0.46666667      0.00000000       1
     -0.10000002     -0.46666667      0.00000000       1
     -0.08333337     -0.46666667      0.00000000       1
     -0.06666669     -0.46666667      0.00000000       1
     -0.05000001     -0.46666667      0.00000000       1
     -0.03333336     -0.46666667      0.00000000       1
     -0.01666671     -0.46666667      0.00000000       1
     -0.00000003     -0.46666667      0.00000000       1
      0.01666665     -0.46666667      0.00000000       1
      0.03333330     -0.46666667      0.00000000       1
      0.04999995     -0.46666667      0.00000000       1
      0.06666660     -0.46666667      0.00000000       1
      0.08333331     -0.46666667      0.00000000       1
      0.09999996     -0.46666667      0.00000000       1
      0.11666662     -0.46666667      0.00000000       1
      0.13333333     -0.46666667      0.00000000       1
      0.14999998     -0.46666667      0.00000000       1
      0.16666663     -0.46666667      0.00000000       1
      0.18333328     -0.46666667      0.00000000       1
      0.19999993     -0.46666667      0.00000000       1
      0.21666664     -0.46666667      0.00000000       1
      0.23333329     -0.46666667      0.00000000       1
      0.24999994     -0.46666667      0.00000000       1
      0.26666665     -0.46666667      0.00000000       1
      0.28333330     -0.46666667      0.00000000       1
      0.29999995     -0.46666667      0.00000000       1
      0.31666660     -0.46666667      0.00000000       1
      0.33333325     -0.46666667      0.00000000       1
      0.34999996     -0.46666667      0.00000000       1
      0.36666662     -0.46666667      0.00000000       1
      0.38333327     -0.46666667      0.00000000       1
      0.39999998     -0.46666667      0.00000000       1
      0.41666663     -0.46666667      0.00000000       1
      0.43333328     -0.46666667      0.00000000       1
      0.44999993     -0.46666667      0.00000000       1
      0.46666664     -0.46666667      0.00000000       1
      0.48333335     -0.46666667      0.00000000       1
      0.50000000     -0.46666667      0.00000000       0
     -0.50000000     -0.44999999      0.00000000       1
     -0.48333335     -0.44999999      0.00000000       1
     -0.46666667     -0.44999999      0.00000000       1
     -0.44999999     -0.44999999      0.00000000       1
     -0.43333334     -0.44999999      0.00000000       1
     -0.41666669     -0.44999999      0.00000000       1
     -0.40000001     -0.44999999      0.00000000       1
     -0.38333333     -0.44999999      0.00000000       1
     -0.36666667     -0.44999999      0.00000000       1
     -0.35000002     -0.44999999      0.00000000       1
     -0.33333334     -0.44999999      0.00000000       1
     -0.31666666     -0.44999999      0.00000000       1
     -0.30000001     -0.44999999      0.00000000       1
     -0.28333336     -0.44999999      0.00000000       1
     -0.26666668     -0.44999999      0.00000000       1
     -0.25000000     -0.44999999      0.00000000       1
     -0.23333335     -0.44999999      0.00000000       1
     -0.21666670     -0.44999999      0.00000000       1
     -0.20000002     -0.44999999      0.00000000       1
     -0.18333334     -0.44999999      0.00000000       1
     -0.16666669     -0.44999999      0.00000000       1
     -0.15000004     -0.44999999      0.00000000       1
     -0.13333336     -0.44999999      0.00000000       1
     -0.11666667     -0.44999999      0.00000000       1
     -0.10000002     -0.44999999      0.00000000       1
     -0.08333337     -0.44999999      0.00000000       1
     -0.06666669     -0.44999999      0.00000000       1
     -0.05000001     -0.44999999      0.00000000       1
     -0.03333336     -0.44999999      0.00000000       1
     -0.01666671     -0.44999999      0.00000000       1
     -0.00000003     -0.44999999      0.00000000       1
      0.01666665     -0.44999999      0.00000000       1
      0.03333330     -0.44999999      0.00000000       1
      0.04999995     -0.44999999      0.00000000       1
      0.06666660     -0.44999999      0.00000000       1
      0.08333331     -0.44999999      0.00000000       1
      0.09999996     -0.44999999      0.00000000       1
      0.11666662     -0.44999999      0.00000000       1
      0.13333333     -0.44999999      0.00000000       1
      0.14999998     -0.44999999      0.00000000       1
      0.16666663     -0.44999999      0.00000000       1
      0.18333328     -0.44999999      0.00000000       1
      0.19999993     -0.44999999      0.00000000       1
      0.21666664     -0.44999999      0.00000000       1
      0.23333329     -0.44999999      0.00000000       1
      0.24999994     -0.44999999      0.00000000       1
      0.26666665     -0.44999999      0.00000000       1
      0.28333330     -0.44999999      0.00000000       1
      0.29999995     -0.44999999      0.00000000       1
      0.31666660     -0.44999999      0.00000000       1
      0.33333325     -0.44999999      0.00000000       1
      0.34999996     -0.44999999      0.00000000       1
      0.36666662     -0.44999999      0.00000000       1
      0.38333327     -0.44999999      0.00000000       1
      0.39999998     -0.44999999      0.00000000       1
      0.41666663     -0.44999999      0.00000000       1
      0.43333328     -0.44999999      0.00000000       1
      0.44999993     -0.44999999      0.00000000       1
      0.46666658     -0.44999999      0.00000000       1
      0.48333329     -0.44999999      0.00000000       1
      0.49999994     -0.44999999      0.00000000       0
     -0.50000000     -0.43333334      0.00000000       1
     -0.48333335     -0.43333334      0.00000000       1
     -0.46666667     -0.43333334      0.00000000       1
     -0.44999999     -0.43333334      0.00000000       1
     -0.43333334     -0.43333334      0.00000000       1
     -0.41666669     -0.43333334      0.00000000       1
     -0.40000001     -0.43333334      0.00000000       1
     -0.38333333     -0.43333334      0.00000000       1
     -0.36666667     -0.43333334      0.00000000       1
     -0.35000002     -0.43333334      0.00000000       1
     -0.33333334     -0.43333334      0.00000000       1
     -0.31666666     -0.43333334      0.00000000       1
     -0.30000001     -0.43333334      0.00000000       1
     -0.28333336     -0.43333334      0.00000000       1
     -0.26666668     -0.43333334      0.00000000       1
     -0.25000000     -0.43333334      0.00000000       1
     -0.23333335     -0.43333334      0.00000000       1
     -0.21666670     -0.43333334      0.00000000       1
     -0.20000002     -0.43333334      0.00000000       1
     -0.18333334     -0.43333334      0.00000000       1
     -0.16666669     -0.43333334      0.00000000       1
     -0.15000004     -0.43333334      0.00000000       1
     -0.13333336     -0.43333334      0.00000000       1
     -0.11666667     -0.43333334      0.00000000       1
     -0.10000002     -0.43333334      0.00000000       1
     -0.08333337     -0.43333334      0.00000000       1
     -0.06666669     -0.43333334      0.00000000       1
     -0.05000001     -0.43333334      0.00000000       1
     -0.03333336     -0.43333334      0.00000000       1
     -0.01666671     -0.43333334      0.00000000       1
     -0.00000003     -0.43333334      0.00000000       1
      0.01666665     -0.43333334      0.00000000       1
      0.03333330     -0.43333334      0.00000000       1
      0.04999995     -0.43333334      0.00000000       1
      0.06666660     -0.43333334      0.00000000       1
      0.08333331     -0.43333334      0.00000000       1
      0.09999996     -0.43333334      0.00000000       1
      0.11666662     -0.43333334      0.00000000       1
      0.13333333     -0.43333334      0.00000000       1
      0.14999998     -0.43333334      0.00000000       1
      0.16666663     -0.43333334      0.00000000       1
      0.18333328     -0.43333334      0.00000000       1
      0.19999993     -0.43333334      0.00000000       1
      0.21666664     -0.43333334      0.00000000       1
      0.23333329     -0.43333334      0.00000000       1
      0.24999994     -0.43333334      0.00000000       1
      0.26666665     -0.43333334      0.00000000       1
      0.28333330     -0.43333334      0.00000000       1
      0.29999995     -0.43333334      0.00000000       1
      0.31666660     -0.43333334      0.00000000       1
      0.33333325     -0.43333334      0.00000000       1
      0.34999996     -0.43333334      0.00000000       1
      0.36666662     -0.43333334      0.00000000       1
      0.38333327     -0.43333334      0.00000000       1
      0.39999998     -0.43333334      0.00000000       1
      0.41666663     -0.43333334      0.00000000       1
      0.43333328     -0.43333334      0.00000000       1
      0.44999993     -0.43333334      0.00000000       1
      0.46666658     -0.43333334      0.00000000       1
      0.48333329     -0.43333334      0.00000000       1
      0.50000000     -0.43333334      0.00000000       0
     -0.50000000     -0.41666666      0.00000000       1
     -0.48333332     -0.41666666      0.00000000       1
     -0.46666667     -0.41666666      0.00000000       1
     -0.44999999     -0.41666666      0.00000000       1
     -0.43333334     -0.41666666      0.00000000       1
     -0.41666669     -0.41666666      0.00000000       1
     -0.40000001     -0.41666666      0.00000000       1
     -0.38333333     -0.41666666      0.00000000       1
     -0.36666667     -0.41666666      0.00000000       1
     -0.35000002     -0.41666666      0.00000000       1
     -0.33333334     -0.41666666      0.00000000       1
     -0.31666666     -0.41666666      0.00000000       1
     -0.30000001     -0.41666666      0.00000000       1
     -0.28333336     -0.41666666      0.00000000       1
     -0.26666668     -0.41666666      0.00000000       1
     -0.25000000     -0.41666666      0.00000000       1
     -0.23333335     -0.41666666      0.00000000       1
     -0.21666670     -0.41666666      0.00000000       1
     -0.20000002     -0.41666666      0.00000000       1
     -0.18333334     -0.41666666      0.00000000       1
     -0.16666669     -0.41666666      0.00000000       1
     -0.15000004     -0.41666666      0.00000000       1
     -0.13333336     -0.41666666      0.00000000       1
     -0.11666667     -0.41666666      0.00000000       1
     -0.10000002     -0.41666666      0.00000000       1
     -0.08333337     -0.41666666      0.00000000       1
     -0.06666669     -0.41666666      0.00000000       1
     -0.05000001     -0.41666666      0.00000000       1
     -0.03333336     -0.41666666      0.00000000       1
     -0.01666671     -0.41666666      0.00000000       1
     -0.00000003     -0.41666666      0.00000000       1
      0.01666665     -0.41666666      0.00000000       1
      0.03333330     -0.41666666      0.00000000       1
      0.04999995     -0.41666666      0.00000000       1
      0.06666660     -0.41666666      0.00000000       1
      0.08333331     -0.41666666      0.00000000       1
      0.09999996     -0.41666666      0.00000000       1
      0.11666662     -0.41666666      0.00000000       1
      0.13333333     -0.41666666      0.00000000       1
      0.14999998     -0.41666666      0.00000000       1
      0.16666663     -0.41666666      0.00000000       1
      0.18333328     -0.41666666      0.00000000       1
      0.19999993     -0.41666666      0.00000000       1
      0.21666664     -0.41666666      0.00000000       1
      0.23333329     -0.41666666      0.00000000       1
      0.24999994     -0.41666666      0.00000000       1
      0.26666665     -0.41666666      0.00000000       1
      0.28333330     -0.41666666      0.00000000       1
      0.29999995     -0.41666666      0.00000000       1
      0.31666660     -0.41666666      0.00000000       1
      0.33333325     -0.41666666      0.00000000       1
      0.34999996     -0.41666666      0.00000000       1
      0.36666662     -0.41666666      0.00000000       1
      0.38333327     -0.41666666      0.00000000       1
      0.39999998     -0.41666666      0.00000000       1
      0.41666663     -0.41666666      0.00000000       1
      0.43333328     -0.41666666      0.00000000       1
      0.44999993     -0.41666666      0.00000000       1
      0.46666658     -0.41666666      0.00000000       1
      0.48333335     -0.41666666      0.00000000       1
      0.50000000     -0.41666666      0.00000000       0
     -0.50000000     -0.40000001      0.00000000       1
     -0.48333332     -0.40000001      0.00000000       1
     -0.46666667     -0.40000001      0.00000000       1
     -0.44999999     -0.40000001      0.00000000       1
     -0.43333334     -0.40000001      0.00000000       1
     -0.41666669     -0.40000001      0.00000000       1
     -0.40000001     -0.40000001      0.00000000       1
     -0.38333333     -0.40000001      0.00000000       1
     -0.36666667     -0.40000001      0.00000000       1
     -0.35000002     -0.40000001      0.00000000       1
     -0.33333334     -0.40000001      0.00000000       1
     -0.31666666     -0.40000001      0.00000000       1
     -0.30000001     -0.40000001      0.00000000       1
     -0.28333336     -0.40000001      0.00000000       1
     -0.26666668     -0.40000001      0.00000000       1
     -0.25000000     -0.40000001      0.00000000       1
     -0.23333335     -0.40000001      0.00000000       1
     -0.21666670     -0.40000001      0.00000000       1
     -0.20000002     -0.40000001      0.00000000       1
     -0.18333334     -0.40000001      0.00000000       1
     -0.16666669     -0.40000001      0.00000000       1
     -0.15000004     -0.40000001      0.00000000       1
     -0.13333336     -0.40000001      0.00000000       1
     -0.11666667     -0.40000001      0.00000000       1
     -0.10000002     -0.40000001      0.00000000       1
     -0.08333337     -0.40000001      0.00000000       1
     -0.06666669     -0.40000001      0.00000000       1
     -0.05000001     -0.40000001      0.00000000       1
     -0.03333336     -0.40000001      0.00000000       1
     -0.01666671     -0.40000001      0.00000000       1
     -0.00000003     -0.40000001      0.00000000       1
      0.01666665     -0.40000001      0.00000000       1
      0.03333330     -0.40000001      0.00000000       1
      0.04999995     -0.40000001      0.00000000       1
      0.06666660     -0.40000001      0.00000000       1
      0.08333331     -0.40000001      0.00000000       1
      0.09999996     -0.40000001      0.00000000       1
      0.11666662     -0.40000001      0.00000000       1
      0.13333333     -0.40000001      0.00000000       1
      0.14999998     -0.40000001      0.00000000       1
      0.16666663     -0.40000001      0.00000000       1
      0.18333328     -0.40000001      0.00000000       1
      0.19999993     -0.40000001      0.00000000       1
      0.21666664     -0.40000001      0.00000000       1
      0.23333329     -0.40000001      0.00000000       1
      0.24999994     -0.40000001      0.00000000       1
      0.26666665     -0.40000001      0.00000000       1
      0.28333330     -0.40000001      0.00000000       1
      0.29999995     -0.40000001      0.00000000       1
      0.31666660     -0.40000001      0.00000000       1
      0.33333325     -0.40000001      0.00000000       1
      0.34999996     -0.40000001      0.00000000       1
      0.36666662     -0.40000001      0.00000000       1
      0.38333327     -0.40000001      0.00000000       1
      0.39999998     -0.40000001      0.00000000       1
      0.41666663     -0.40000001      0.00000000       1
      0.43333328     -0.40000001      0.00000000       1
      0.44999993     -0.40000001      0.00000000       1
      0.46666664     -0.40000001      0.00000000       1
      0.48333335     -0.40000001      0.00000000       1
      0.50000000     -0.40000001      0.00000000       0
     -0.50000000     -0.38333333      0.00000000       1
     -0.48333335     -0.38333333      0.00000000       1
     -0.46666667     -0.38333333      0.00000000       1
     -0.44999999     -0.38333333      0.00000000       1
     -0.43333334     -0.38333333      0.00000000       1
     -0.41666669     -0.38333333      0.00000000       1
     -0.40000001     -0.38333333      0.00000000       1
     -0.38333333     -0.38333333      0.00000000       1
     -0.36666667     -0.38333333      0.00000000       1
     -0.35000002     -0.38333333      0.00000000       1
     -0.33333334     -0.38333333      0.00000000       1
     -0.31666666     -0.38333333      0.00000000       1
     -0.30000001     -0.38333333      0.00000000       1
     -0.28333336     -0.38333333      0.00000000       1
     -0.26666668     -0.38333333      0.00000000       1
     -0.25000000     -0.38333333      0.00000000       1
     -0.23333335     -0.38333333      0.00000000       1
     -0.21666670     -0.38333333      0.00000000       1
     -0.20000002     -0.38333333      0.00000000       1
     -0.18333334     -0.38333333      0.00000000       1
     -0.16666669     -0.38333333      0.00000000       1
     -0.15000004     -0.38333333      0.00000000       1
     -0.13333336     -0.38333333      0.00000000       1
     -0.11666667     -0.38333333      0.00000000       1
     -0.10000002     -0.38333333      0.00000000       1
     -0.08333337     -0.38333333      0.00000000       1
     -0.06666669     -0.38333333      0.00000000       1
     -0.05000001     -0.38333333      0.00000000       1
     -0.03333336     -0.38333333      0.00000000       1
     -0.01666671     -0.38333333      0.00000000       1
     -0.00000003     -0.38333333      0.00000000       1
      0.01666665     -0.38333333      0.00000000       1
      0.03333330     -0.38333333      0.00000000       1
      0.04999995     -0.38333333      0.00000000       1
      0.06666660     -0.38333333      0.00000000       1
      0.08333331     -0.38333333      0.00000000       1
      0.09999996     -0.38333333      0.00000000       1
      0.11666662     -0.38333333      0.00000000       1
      0.13333333     -0.38333333      0.00000000       1
      0.14999998     -0.38333333      0.00000000       1
      0.16666663     -0.38333333      0.00000000       1
      0.18333328     -0.38333333      0.00000000       1
      0.19999993     -0.38333333      0.00000000       1
      0.21666664     -0.38333333      0.00000000       1
      0.23333329     -0.38333333      0.00000000       1
      0.24999994     -0.38333333      0.00000000       1
      0.26666665     -0.38333333      0.00000000       1
      0.28333330     -0.38333333      0.00000000       1
      0.29999995     -0.38333333      0.00000000       1
      0.31666660     -0.38333333      0.00000000       1
      0.33333325     -0.38333333      0.00000000       1
      0.34999996     -0.38333333      0.00000000       1
      0.36666662     -0.38333333      0.00000000       1
      0.38333327     -0.38333333      0.00000000       1
      0.39999998     -0.38333333      0.00000000       1
      0.41666663     -0.38333333      0.00000000       1
      0.43333328     -0.38333333      0.00000000       1
      0.44999993     -0.38333333      0.00000000       1
      0.46666658     -0.38333333      0.00000000       1
      0.48333329     -0.38333333      0.00000000       1
      0.49999994     -0.38333333      0.00000000       0
     -0.50000000     -0.36666667      0.00000000       1
     -0.48333335     -0.36666667      0.00000000       1
     -0.46666667     -0.36666667      0.00000000       1
     -0.44999999     -0.36666667      0.00000000       1
     -0.43333334     -0.36666667      0.00000000       1
     -0.41666669     -0.36666667      0.00000000       1
     -0.40000001     -0.36666667      0.00000000       1
     -0.38333333     -0.36666667      0.00000000       1
     -0.36666667     -0.36666667      0.00000000       1
     -0.35000002     -0.36666667      0.00000000       1
     -0.33333334     -0.36666667      0.00000000       1
     -0.31666666     -0.36666667      0.00000000       1
     -0.30000001     -0.36666667      0.00000000       1
     -0.28333336     -0.36666667      0.00000000       1
     -0.26666668     -0.36666667      0.00000000       1
     -0.25000000     -0.36666667      0.00000000       1
     -0.23333335     -0.36666667      0.00000000       1
     -0.21666670     -0.36666667      0.00000000       1
     -0.20000002     -0.36666667      0.00000000       1
     -0.18333334     -0.36666667      0.00000000       1
     -0.16666669     -0.36666667      0.00000000       1
     -0.15000004     -0.36666667      0.00000000       1
     -0.13333336     -0.36666667      0.00000000       1
     -0.11666667     -0.36666667      0.00000000       1
     -0.10000002     -0.36666667      0.00000000       1
     -0.08333337     -0.36666667      0.00000000       1
     -0.06666669     -0.36666667      0.00000000       1
     -0.05000001     -0.36666667      0.00000000       1
     -0.03333336     -0.36666667      0.00000000       1
     -0.01666671     -0.36666667      0.00000000       1
     -0.00000003     -0.36666667      0.00000000       1
      0.01666665     -0.36666667      0.00000000       1
      0.03333330     -0.36666667      0.00000000       1
      0.04999995     -0.36666667      0.00000000       1
      0.06666660     -0.36666667      0.00000000       1
      0.08333331     -0.36666667      0.00000000       1
      0.09999996     -0.36666667      0.00000000       1