graphene                                
   2.45999999999999996     
     0.5000000000000000   -0.8660253999999999    0.0000000000000000
     0.5000000000000000    0.8660253999999999    0.0000000000000000
     0.0000000000000000    0.0000000000000000    8.0000000000000000
   C 
     2
Direct
  0.0000000000000000  0.0000000000000000  0.5000000000000000
  0.6666700000000034  0.3333299999999966  0.5000000000000000

  0.00000000E+00  0.00000000E+00  0.00000000E+00
  0.00000000E+00  0.00000000E+00  0.00000000E+00
