C    P    O                             
   1.00000000000000     
     7.2974033356000003    0.0000000000000000    0.0000000000000000
    -3.3255740842999999    6.4955978661999998    0.0000000000000000
     0.0000000000000000    0.0000000000000000   15.0000000000000000
   C    P    O 
    16     1     2
Selective dynamics
Direct
   0.9883941053415264  0.9912291177000353  0.4289884604989409  F   F   F
   0.1028395007211677  0.2021372392764296  0.4404811167990556  F   F   F
   0.0005348030323442  0.3256439947628900  0.4356137042464105  F   F   F
   0.1138920043821028  0.5469279081279477  0.4298690984956864  F   F   F
   0.0008438511086535  0.6587295281528998  0.4262486809694669  F   F   F
   0.1011828881190377  0.8759047288167161  0.4249506245113601  F   F   F
   0.3140819451067050  0.9907994497288584  0.4246714136347535  F   F   F
   0.4579560686993188  0.5589464360863986  0.4250042159475176  F   F   F
   0.3349385686439397  0.6612051589031731  0.4254765280594803  F   F   F
   0.4370629240356991  0.8884765729799212  0.4254088223173182  F   F   F
   0.6580387325634900  0.0028265482132309  0.4298905842602289  F   F   F
   0.7712507062650371  0.2241218080036811  0.4357080384570353  F   F   F
   0.6690321697976629  0.3476963280422412  0.4408053938888898  F   F   F
   0.7835901782378383  0.5586009113907374  0.4292236042239242  F   F   F
   0.6708009220051472  0.6739075632585804  0.4251715508124654  F   F   F
   0.7711454637301071  0.8910864975497240  0.4262525568393213  F   F   F
   0.3858417348644513  0.2753261523278651  0.4696081659085474  T   T   T
   0.4136830454955710  0.4108271489024988  0.5589972700138545  T   T   T
   0.3559544634013613  0.1358921056065863  0.5579620952779017  T   T   T
 

