 C    P    O    H
   1.000
    7.2974033356000003    0.0000000000000000    0.0000000000000000
   -3.3255740842999999    6.4955978661999998    0.0000000000000000
    0.0000000000000000    0.0000000000000000   15.0000000000000000
   C    P    O    H 
   16    1    1    1
Direct
    0.9925126692274286    0.9907774859223268    0.4137075838240024     C1
    0.1032825933038662    0.2009012469502522    0.4055791544739882     C2
    0.0143119184412462    0.3325958653693875    0.4182980864343874     C3
    0.1299734419463700    0.5552409904601330    0.4253062997591845     C4
    0.0147964188713110    0.6656605134421025    0.4264388088384921     C5
    0.1129290025346147    0.8819200653091344    0.4175190573830538     C6
    0.3248848707353315    0.0016398431999377    0.4200894803094880     C7
    0.4717023414459984    0.5730209976962819    0.4470875763318976     C8
    0.3499931361427846    0.6747304653025846    0.4320416733796301     C9
    0.4511991879734880    0.9018884402664185    0.4294799278008558    C10
    0.6735730467405935    0.0104461599715758    0.4324238107837017    C11
    0.7969924140208089    0.2316443117132262    0.4360020403813077    C12
    0.7092546929294348    0.3558597116056930    0.4655399939458922    C13
    0.8019750172655344    0.5658163346028409    0.4467254439559206    C14
    0.6839883524921631    0.6773983878552062    0.4437015916326267    C15
    0.7801087541465714    0.8918471316930060    0.4280735728347167    C16
    0.3608934419787840    0.2680263499851183    0.4242079527494426     P1
    0.3555656668499941    0.3249502615390440    0.5251576729998735     O1
    0.5889979503635256    0.2924594592989398    0.5155246759856946     H1
