# Don't Edit This Line!     42     3     6     0.030
    60
Reciprocal lattice
    0.00000000000000    0.00000000000000    0.00000000000000     2
    0.10000000000000    0.00000000000000    0.00000000000000     6
    0.20000000000000    0.00000000000000    0.00000000000000    10
    0.30000000000000    0.00000000000000    0.00000000000000    10
    0.40000000000000    0.00000000000000    0.00000000000000    10
    0.50000000000000    0.00000000000000    0.00000000000000     6
    0.10000000000000    0.10000000000000    0.00000000000000     5
    0.20000000000000    0.10000000000000    0.00000000000000    29
    0.30000000000000    0.10000000000000    0.00000000000000    18
    0.40000000000000    0.10000000000000    0.00000000000000    18
    0.50000000000000    0.10000000000000    0.00000000000000    21
   -0.40000000000000    0.10000000000000    0.00000000000000    21
   -0.30000000000000    0.10000000000000    0.00000000000000    18
   -0.20000000000000    0.10000000000000    0.00000000000000    20
    0.20000000000000    0.20000000000000    0.00000000000000     2
    0.30000000000000    0.20000000000000    0.00000000000000    37
    0.40000000000000    0.20000000000000    0.00000000000000    40
    0.50000000000000    0.20000000000000    0.00000000000000    37
   -0.40000000000000    0.20000000000000    0.00000000000000    40
   -0.30000000000000    0.20000000000000    0.00000000000000    32
   -0.20000000000000    0.20000000000000    0.00000000000000    18
    0.30000000000000    0.30000000000000    0.00000000000000     2
    0.40000000000000    0.30000000000000    0.00000000000000    29
    0.50000000000000    0.30000000000000    0.00000000000000    39
   -0.40000000000000    0.30000000000000    0.00000000000000    53
   -0.30000000000000    0.30000000000000    0.00000000000000    21
    0.40000000000000    0.40000000000000    0.00000000000000     2
    0.50000000000000    0.40000000000000    0.00000000000000    38
   -0.40000000000000    0.40000000000000    0.00000000000000    22
    0.30000000000000    0.20000000000000    0.10000000000000     6
    0.40000000000000    0.20000000000000    0.10000000000000    22
    0.50000000000000    0.20000000000000    0.10000000000000    27
   -0.40000000000000    0.20000000000000    0.10000000000000    17
    0.40000000000000    0.30000000000000    0.10000000000000    14
    0.50000000000000    0.30000000000000    0.10000000000000    43
   -0.40000000000000    0.30000000000000    0.10000000000000    39
   -0.30000000000000    0.30000000000000    0.10000000000000    38
    0.50000000000000    0.40000000000000    0.10000000000000    15
   -0.40000000000000    0.40000000000000    0.10000000000000    75
   -0.30000000000000    0.40000000000000    0.10000000000000    71
   -0.40000000000000    0.40000000000000    0.20000000000000     6
   -0.30000000000000    0.40000000000000    0.20000000000000    21
    0.00000000000000    0.00000000000000    0.00000000000000     0
    0.00375000000000    0.00375000000000    0.00750000000000     0
    0.00750000000000    0.00750000000000    0.01500000000000     0
    0.01125000000000    0.01125000000000    0.02250000000000     0
    0.01500000000000    0.01500000000000    0.03000000000000     0
    0.01875000000000    0.01875000000000    0.03750000000000     0
    0.00000000000000    0.00000000000000    0.00000000000000     0
    0.00500000000000    0.00500000000000    0.00500000000000     0
    0.01000000000000    0.01000000000000    0.01000000000000     0
    0.01500000000000    0.01500000000000    0.01500000000000     0
    0.02000000000000    0.02000000000000    0.02000000000000     0
    0.02500000000000    0.02500000000000    0.02500000000000     0
    0.00000000000000    0.00000000000000    0.00000000000000     0
    0.00500000000000    0.00000000000000    0.00500000000000     0
    0.01000000000000    0.00000000000000    0.01000000000000     0
    0.01500000000000    0.00000000000000    0.01500000000000     0
    0.02000000000000    0.00000000000000    0.02000000000000     0
    0.02500000000000    0.00000000000000    0.02500000000000     0
