Global Parameters
  ISTART =  1            (Read existing wavefunction; if there)
  # ICHARG =  11         (Non-self-consistent: GGA/LDA band structures)
  LREAL  = Auto          (Projection operators: automatic)
  ENCUT  =  400          (Cut-off energy for plane wave basis set, in eV) 
  PREC   =  Accurate     (Precision level)  
  LWAVE  = .FALSE.       (Write WAVECAR or not)
  LCHARG = .FALSE.       (Write CHGCAR or not) 
  ADDGRID= .TRUE.        (Increase grid; helps GGA convergence) 
  # LVTOT  = .TRUE.      (Write total electrostatic potential into LOCPOT or not)
  # LVHAR  = .TRUE.      (Write ionic + Hartree electrostatic potential into LOCPOT or not)
  # NELECT =             (No. of electrons: charged cells; be careful)
  # LPLANE = .TRUE.      (Real space distribution; supercells)
  # NPAR   = 4           (Max is no. nodes; don't set for hybrids)
 
Electronic Relaxation
  ISMEAR =  0            (Gaussian smearing; metals:1)
  SIGMA  =  0.05         (Smearing value in eV; metals:0.2)
  NELM   =  40           (Max electronic SCF steps)  
  NELMIN =  4            (Min electronic SCF steps)
  EDIFF  =  1E-08        (SCF energy convergence; in eV) 
  # GGA  =  PS           (PBEsol exchange-correlation)

