Zn2 O2                                  
   1.00000000000000     
     3.2596938734642023    0.0000000000000000   -0.0000000000000000
    -1.6298469367321011    2.8229800845238318    0.0000000000000000
     0.0000000000000000   -0.0000000000000000    5.2599522462696848
   O    Zn
     2     2
Direct
  0.6666669999999968  0.3333330000000032  0.8797460258289165
  0.3333330000000032  0.6666669999999968  0.3797460258289165
  0.6666669999999968  0.3333330000000032  0.5005639741710850
  0.3333330000000032  0.6666669999999968  0.0005639741710850
 
  0.00000000E+00  0.00000000E+00  0.00000000E+00
  0.00000000E+00  0.00000000E+00  0.00000000E+00
  0.00000000E+00  0.00000000E+00  0.00000000E+00
  0.00000000E+00  0.00000000E+00  0.00000000E+00
