G   60   60   60    0.008             # Do Not Edit This Line! 
    5216
Reciprocal lattice
    0.000000000000    0.000000000000    0.000000000000       1
    0.016666666667    0.000000000000    0.000000000000       8
    0.033333333333    0.000000000000    0.000000000000       8
    0.050000000000    0.000000000000    0.000000000000       8
    0.066666666667    0.000000000000    0.000000000000       8
    0.083333333333    0.000000000000    0.000000000000       8
    0.100000000000    0.000000000000    0.000000000000       8
    0.116666666667    0.000000000000    0.000000000000       8
    0.133333333333    0.000000000000    0.000000000000       8
    0.150000000000    0.000000000000    0.000000000000       8
    0.166666666667    0.000000000000    0.000000000000       8
    0.183333333333    0.000000000000    0.000000000000       8
    0.200000000000    0.000000000000    0.000000000000       8
    0.216666666667    0.000000000000    0.000000000000       8
    0.233333333333    0.000000000000    0.000000000000       8
    0.250000000000    0.000000000000    0.000000000000       8
    0.266666666667    0.000000000000    0.000000000000       8
    0.283333333333    0.000000000000    0.000000000000       8
    0.300000000000    0.000000000000    0.000000000000       8
    0.316666666667    0.000000000000    0.000000000000       8
    0.333333333333    0.000000000000    0.000000000000       8
    0.350000000000    0.000000000000    0.000000000000       8
    0.366666666667    0.000000000000    0.000000000000       8
    0.383333333333    0.000000000000    0.000000000000       8
    0.400000000000    0.000000000000    0.000000000000       8
    0.416666666667    0.000000000000    0.000000000000       8
    0.433333333333    0.000000000000    0.000000000000       8
    0.450000000000    0.000000000000    0.000000000000       8
    0.466666666667    0.000000000000    0.000000000000       8
    0.483333333333    0.000000000000    0.000000000000       8
    0.500000000000    0.000000000000    0.000000000000       4
    0.016666666667    0.016666666667    0.000000000000       6
    0.033333333333    0.016666666667    0.000000000000      24
    0.050000000000    0.016666666667    0.000000000000      24
    0.066666666667    0.016666666667    0.000000000000      24
    0.083333333333    0.016666666667    0.000000000000      24
    0.100000000000    0.016666666667    0.000000000000      24
    0.116666666667    0.016666666667    0.000000000000      24
    0.133333333333    0.016666666667    0.000000000000      24
    0.150000000000    0.016666666667    0.000000000000      24
    0.166666666667    0.016666666667    0.000000000000      24
    0.183333333333    0.016666666667    0.000000000000      24
    0.200000000000    0.016666666667    0.000000000000      24
    0.216666666667    0.016666666667    0.000000000000      24
    0.233333333333    0.016666666667    0.000000000000      24
    0.250000000000    0.016666666667    0.000000000000      24
    0.266666666667    0.016666666667    0.000000000000      24
    0.283333333333    0.016666666667    0.000000000000      24
    0.300000000000    0.016666666667    0.000000000000      24
    0.316666666667    0.016666666667    0.000000000000      24
    0.333333333333    0.016666666667    0.000000000000      24
    0.350000000000    0.016666666667    0.000000000000      24
    0.366666666667    0.016666666667    0.000000000000      24
    0.383333333333    0.016666666667    0.000000000000      24
    0.400000000000    0.016666666667    0.000000000000      24
    0.416666666667    0.016666666667    0.000000000000      24
    0.433333333333    0.016666666667    0.000000000000      24
    0.450000000000    0.016666666667    0.000000000000      24
    0.466666666667    0.016666666667    0.000000000000      24
    0.483333333333    0.016666666667    0.000000000000      24
    0.500000000000    0.016666666667    0.000000000000      24
   -0.483333333333    0.016666666667    0.000000000000      24
   -0.466666666667    0.016666666667    0.000000000000      24
   -0.450000000000    0.016666666667    0.000000000000      24
   -0.433333333333    0.016666666667    0.000000000000      24
   -0.416666666667    0.016666666667    0.000000000000      24
   -0.400000000000    0.016666666667    0.000000000000      24
   -0.383333333333    0.016666666667    0.000000000000      24
   -0.366666666667    0.016666666667    0.000000000000      24
   -0.350000000000    0.016666666667    0.000000000000      24
   -0.333333333333    0.016666666667    0.000000000000      24
   -0.316666666667    0.016666666667    0.000000000000      24
   -0.300000000000    0.016666666667    0.000000000000      24
   -0.283333333333    0.016666666667    0.000000000000      24
   -0.266666666667    0.016666666667    0.000000000000      24
   -0.250000000000    0.016666666667    0.000000000000      24
   -0.233333333333    0.016666666667    0.000000000000      24
   -0.216666666667    0.016666666667    0.000000000000      24
   -0.200000000000    0.016666666667    0.000000000000      24
   -0.183333333333    0.016666666667    0.000000000000      24
   -0.166666666667    0.016666666667    0.000000000000      24
   -0.150000000000    0.016666666667    0.000000000000      24
   -0.133333333333    0.016666666667    0.000000000000      24
   -0.116666666667    0.016666666667    0.000000000000      24
   -0.100000000000    0.016666666667    0.000000000000      24
   -0.083333333333    0.016666666667    0.000000000000      24
   -0.066666666667    0.016666666667    0.000000000000      24
   -0.050000000000    0.016666666667    0.000000000000      24
   -0.033333333333    0.016666666667    0.000000000000      24
   -0.016666666667    0.016666666667    0.000000000000      12
    0.033333333333    0.033333333333    0.000000000000       6
    0.050000000000    0.033333333333    0.000000000000      24
    0.066666666667    0.033333333333    0.000000000000      24
    0.083333333333    0.033333333333    0.000000000000      24
    0.100000000000    0.033333333333    0.000000000000      24
    0.116666666667    0.033333333333    0.000000000000      24
    0.133333333333    0.033333333333    0.000000000000      24
    0.150000000000    0.033333333333    0.000000000000      24
    0.166666666667    0.033333333333    0.000000000000      24
    0.183333333333    0.033333333333    0.000000000000      24
    0.200000000000    0.033333333333    0.000000000000      24
    0.216666666667    0.033333333333    0.000000000000      24
    0.233333333333    0.033333333333    0.000000000000      24
    0.250000000000    0.033333333333    0.000000000000      24
    0.266666666667    0.033333333333    0.000000000000      24
    0.283333333333    0.033333333333    0.000000000000      24
    0.300000000000    0.033333333333    0.000000000000      24
    0.316666666667    0.033333333333    0.000000000000      24
    0.333333333333    0.033333333333    0.000000000000      24
    0.350000000000    0.033333333333    0.000000000000      24
    0.366666666667    0.033333333333    0.000000000000      24
    0.383333333333    0.033333333333    0.000000000000      24
    0.400000000000    0.033333333333    0.000000000000      24
    0.416666666667    0.033333333333    0.000000000000      24
    0.433333333333    0.033333333333    0.000000000000      24
    0.450000000000    0.033333333333    0.000000000000      24
    0.466666666667    0.033333333333    0.000000000000      24
    0.483333333333    0.033333333333    0.000000000000      24
    0.500000000000    0.033333333333    0.000000000000      24
   -0.483333333333    0.033333333333    0.000000000000      24
   -0.466666666667    0.033333333333    0.000000000000      24
   -0.450000000000    0.033333333333    0.000000000000      24
   -0.433333333333    0.033333333333    0.000000000000      24
   -0.416666666667    0.033333333333    0.000000000000      24
   -0.400000000000    0.033333333333    0.000000000000      24
   -0.383333333333    0.033333333333    0.000000000000      24
   -0.366666666667    0.033333333333    0.000000000000      24
   -0.350000000000    0.033333333333    0.000000000000      24
   -0.333333333333    0.033333333333    0.000000000000      24
   -0.316666666667    0.033333333333    0.000000000000      24
   -0.300000000000    0.033333333333    0.000000000000      24
   -0.283333333333    0.033333333333    0.000000000000      24
   -0.266666666667    0.033333333333    0.000000000000      24
   -0.250000000000    0.033333333333    0.000000000000      24
   -0.233333333333    0.033333333333    0.000000000000      24
   -0.216666666667    0.033333333333    0.000000000000      24
   -0.200000000000    0.033333333333    0.000000000000      24
   -0.183333333333    0.033333333333    0.000000000000      24
   -0.166666666667    0.033333333333    0.000000000000      24
   -0.150000000000    0.033333333333    0.000000000000      24
   -0.133333333333    0.033333333333    0.000000000000      24
   -0.116666666667    0.033333333333    0.000000000000      24
   -0.100000000000    0.033333333333    0.000000000000      24
   -0.083333333333    0.033333333333    0.000000000000      24
   -0.066666666667    0.033333333333    0.000000000000      24
   -0.050000000000    0.033333333333    0.000000000000      24
   -0.033333333333    0.033333333333    0.000000000000      12
    0.050000000000    0.050000000000    0.000000000000       6
    0.066666666667    0.050000000000    0.000000000000      24
    0.083333333333    0.050000000000    0.000000000000      24
    0.100000000000    0.050000000000    0.000000000000      24
    0.116666666667    0.050000000000    0.000000000000      24
    0.133333333333    0.050000000000    0.000000000000      24
    0.150000000000    0.050000000000    0.000000000000      24
    0.166666666667    0.050000000000    0.000000000000      24
    0.183333333333    0.050000000000    0.000000000000      24
    0.200000000000    0.050000000000    0.000000000000      24
    0.216666666667    0.050000000000    0.000000000000      24
    0.233333333333    0.050000000000    0.000000000000      24
    0.250000000000    0.050000000000    0.000000000000      24
    0.266666666667    0.050000000000    0.000000000000      24
    0.283333333333    0.050000000000    0.000000000000      24
    0.300000000000    0.050000000000    0.000000000000      24
    0.316666666667    0.050000000000    0.000000000000      24
    0.333333333333    0.050000000000    0.000000000000      24
    0.350000000000    0.050000000000    0.000000000000      24
    0.366666666667    0.050000000000    0.000000000000      24
    0.383333333333    0.050000000000    0.000000000000      24
    0.400000000000    0.050000000000    0.000000000000      24
    0.416666666667    0.050000000000    0.000000000000      24
    0.433333333333    0.050000000000    0.000000000000      24
    0.450000000000    0.050000000000    0.000000000000      24
    0.466666666667    0.050000000000    0.000000000000      24
    0.483333333333    0.050000000000    0.000000000000      24
    0.500000000000    0.050000000000    0.000000000000      24
   -0.483333333333    0.050000000000    0.000000000000      24
   -0.466666666667    0.050000000000    0.000000000000      24
   -0.450000000000    0.050000000000    0.000000000000      24
   -0.433333333333    0.050000000000    0.000000000000      24
   -0.416666666667    0.050000000000    0.000000000000      24
   -0.400000000000    0.050000000000    0.000000000000      24
   -0.383333333333    0.050000000000    0.000000000000      24
   -0.366666666667    0.050000000000    0.000000000000      24
   -0.350000000000    0.050000000000    0.000000000000      24
   -0.333333333333    0.050000000000    0.000000000000      24
   -0.316666666667    0.050000000000    0.000000000000      24
   -0.300000000000    0.050000000000    0.000000000000      24
   -0.283333333333    0.050000000000    0.000000000000      24
   -0.266666666667    0.050000000000    0.000000000000      24
   -0.250000000000    0.050000000000    0.000000000000      24
   -0.233333333333    0.050000000000    0.000000000000      24
   -0.216666666667    0.050000000000    0.000000000000      24
   -0.200000000000    0.050000000000    0.000000000000      24
   -0.183333333333    0.050000000000    0.000000000000      24
   -0.166666666667    0.050000000000    0.000000000000      24
   -0.150000000000    0.050000000000    0.000000000000      24
   -0.133333333333    0.050000000000    0.000000000000      24
   -0.116666666667    0.050000000000    0.000000000000      24
   -0.100000000000    0.050000000000    0.000000000000      24
   -0.083333333333    0.050000000000    0.000000000000      24
   -0.066666666667    0.050000000000    0.000000000000      24
   -0.050000000000    0.050000000000    0.000000000000      12
    0.066666666667    0.066666666667    0.000000000000       6
    0.083333333333    0.066666666667    0.000000000000      24
    0.100000000000    0.066666666667    0.000000000000      24
    0.116666666667    0.066666666667    0.000000000000      24
    0.133333333333    0.066666666667    0.000000000000      24
    0.150000000000    0.066666666667    0.000000000000      24
    0.166666666667    0.066666666667    0.000000000000      24
    0.183333333333    0.066666666667    0.000000000000      24
    0.200000000000    0.066666666667    0.000000000000      24
    0.216666666667    0.066666666667    0.000000000000      24
    0.233333333333    0.066666666667    0.000000000000      24
    0.250000000000    0.066666666667    0.000000000000      24
    0.266666666667    0.066666666667    0.000000000000      24
    0.283333333333    0.066666666667    0.000000000000      24
    0.300000000000    0.066666666667    0.000000000000      24
    0.316666666667    0.066666666667    0.000000000000      24
    0.333333333333    0.066666666667    0.000000000000      24
    0.350000000000    0.066666666667    0.000000000000      24
    0.366666666667    0.066666666667    0.000000000000      24
    0.383333333333    0.066666666667    0.000000000000      24
    0.400000000000    0.066666666667    0.000000000000      24
    0.416666666667    0.066666666667    0.000000000000      24
    0.433333333333    0.066666666667    0.000000000000      24
    0.450000000000    0.066666666667    0.000000000000      24
    0.466666666667    0.066666666667    0.000000000000      24
    0.483333333333    0.066666666667    0.000000000000      24
    0.500000000000    0.066666666667    0.000000000000      24
   -0.483333333333    0.066666666667    0.000000000000      24
   -0.466666666667    0.066666666667    0.000000000000      24
   -0.450000000000    0.066666666667    0.000000000000      24
   -0.433333333333    0.066666666667    0.000000000000      24
   -0.416666666667    0.066666666667    0.000000000000      24
   -0.400000000000    0.066666666667    0.000000000000      24
   -0.383333333333    0.066666666667    0.000000000000      24
   -0.366666666667    0.066666666667    0.000000000000      24
   -0.350000000000    0.066666666667    0.000000000000      24
   -0.333333333333    0.066666666667    0.000000000000      24
   -0.316666666667    0.066666666667    0.000000000000      24
   -0.300000000000    0.066666666667    0.000000000000      24
   -0.283333333333    0.066666666667    0.000000000000      24
   -0.266666666667    0.066666666667    0.000000000000      24
   -0.250000000000    0.066666666667    0.000000000000      24
   -0.233333333333    0.066666666667    0.000000000000      24
   -0.216666666667    0.066666666667    0.000000000000      24
   -0.200000000000    0.066666666667    0.000000000000      24
   -0.183333333333    0.066666666667    0.000000000000      24
   -0.166666666667    0.066666666667    0.000000000000      24
   -0.150000000000    0.066666666667    0.000000000000      24
   -0.133333333333    0.066666666667    0.000000000000      24
   -0.116666666667    0.066666666667    0.000000000000      24
   -0.100000000000    0.066666666667    0.000000000000      24
   -0.083333333333    0.066666666667    0.000000000000      24
   -0.066666666667    0.066666666667    0.000000000000      12
    0.083333333333    0.083333333333    0.000000000000       6
    0.100000000000    0.083333333333    0.000000000000      24
    0.116666666667    0.083333333333    0.000000000000      24
    0.133333333333    0.083333333333    0.000000000000      24
    0.150000000000    0.083333333333    0.000000000000      24
    0.166666666667    0.083333333333    0.000000000000      24
    0.183333333333    0.083333333333    0.000000000000      24
    0.200000000000    0.083333333333    0.000000000000      24
    0.216666666667    0.083333333333    0.000000000000      24
    0.233333333333    0.083333333333    0.000000000000      24
    0.250000000000    0.083333333333    0.000000000000      24
    0.266666666667    0.083333333333    0.000000000000      24
    0.283333333333    0.083333333333    0.000000000000      24
    0.300000000000    0.083333333333    0.000000000000      24
    0.316666666667    0.083333333333    0.000000000000      24
    0.333333333333    0.083333333333    0.000000000000      24
    0.350000000000    0.083333333333    0.000000000000      24
    0.366666666667    0.083333333333    0.000000000000      24
    0.383333333333    0.083333333333    0.000000000000      24
    0.400000000000    0.083333333333    0.000000000000      24
    0.416666666667    0.083333333333    0.000000000000      24
    0.433333333333    0.083333333333    0.000000000000      24
    0.450000000000    0.083333333333    0.000000000000      24
    0.466666666667    0.083333333333    0.000000000000      24
    0.483333333333    0.083333333333    0.000000000000      24
    0.500000000000    0.083333333333    0.000000000000      24
   -0.483333333333    0.083333333333    0.000000000000      24
   -0.466666666667    0.083333333333    0.000000000000      24
   -0.450000000000    0.083333333333    0.000000000000      24
   -0.433333333333    0.083333333333    0.000000000000      24
   -0.416666666667    0.083333333333    0.000000000000      24
   -0.400000000000    0.083333333333    0.000000000000      24
   -0.383333333333    0.083333333333    0.000000000000      24
   -0.366666666667    0.083333333333    0.000000000000      24
   -0.350000000000    0.083333333333    0.000000000000      24
   -0.333333333333    0.083333333333    0.000000000000      24
   -0.316666666667    0.083333333333    0.000000000000      24
   -0.300000000000    0.083333333333    0.000000000000      24
   -0.283333333333    0.083333333333    0.000000000000      24
   -0.266666666667    0.083333333333    0.000000000000      24
   -0.250000000000    0.083333333333    0.000000000000      24
   -0.233333333333    0.083333333333    0.000000000000      24
   -0.216666666667    0.083333333333    0.000000000000      24
   -0.200000000000    0.083333333333    0.000000000000      24
   -0.183333333333    0.083333333333    0.000000000000      24
   -0.166666666667    0.083333333333    0.000000000000      24
   -0.150000000000    0.083333333333    0.000000000000      24
   -0.133333333333    0.083333333333    0.000000000000      24
   -0.116666666667    0.083333333333    0.000000000000      24
   -0.100000000000    0.083333333333    0.000000000000      24
   -0.083333333333    0.083333333333    0.000000000000      12
    0.100000000000    0.100000000000    0.000000000000       6
    0.116666666667    0.100000000000    0.000000000000      24
    0.133333333333    0.100000000000    0.000000000000      24
    0.150000000000    0.100000000000    0.000000000000      24
    0.166666666667    0.100000000000    0.000000000000      24
    0.183333333333    0.100000000000    0.000000000000      24
    0.200000000000    0.100000000000    0.000000000000      24
    0.216666666667    0.100000000000    0.000000000000      24
    0.233333333333    0.100000000000    0.000000000000      24
    0.250000000000    0.100000000000    0.000000000000      24
    0.266666666667    0.100000000000    0.000000000000      24
    0.283333333333    0.100000000000    0.000000000000      24
    0.300000000000    0.100000000000    0.000000000000      24
    0.316666666667    0.100000000000    0.000000000000      24
    0.333333333333    0.100000000000    0.000000000000      24
    0.350000000000    0.100000000000    0.000000000000      24
    0.366666666667    0.100000000000    0.000000000000      24
    0.383333333333    0.100000000000    0.000000000000      24
    0.400000000000    0.100000000000    0.000000000000      24
    0.416666666667    0.100000000000    0.000000000000      24
    0.433333333333    0.100000000000    0.000000000000      24
    0.450000000000    0.100000000000    0.000000000000      24
    0.466666666667    0.100000000000    0.000000000000      24
    0.483333333333    0.100000000000    0.000000000000      24
    0.500000000000    0.100000000000    0.000000000000      24
   -0.483333333333    0.100000000000    0.000000000000      24
   -0.466666666667    0.100000000000    0.000000000000      24
   -0.450000000000    0.100000000000    0.000000000000      24
   -0.433333333333    0.100000000000    0.000000000000      24
   -0.416666666667    0.100000000000    0.000000000000      24
   -0.400000000000    0.100000000000    0.000000000000      24
   -0.383333333333    0.100000000000    0.000000000000      24
   -0.366666666667    0.100000000000    0.000000000000      24
   -0.350000000000    0.100000000000    0.000000000000      24
   -0.333333333333    0.100000000000    0.000000000000      24
   -0.316666666667    0.100000000000    0.000000000000      24
   -0.300000000000    0.100000000000    0.000000000000      24
   -0.283333333333    0.100000000000    0.000000000000      24
   -0.266666666667    0.100000000000    0.000000000000      24
   -0.250000000000    0.100000000000    0.000000000000      24
   -0.233333333333    0.100000000000    0.000000000000      24
   -0.216666666667    0.100000000000    0.000000000000      24
   -0.200000000000    0.100000000000    0.000000000000      24
   -0.183333333333    0.100000000000    0.000000000000      24
   -0.166666666667    0.100000000000    0.000000000000      24
   -0.150000000000    0.100000000000    0.000000000000      24
   -0.133333333333    0.100000000000    0.000000000000      24
   -0.116666666667    0.100000000000    0.000000000000      24
   -0.100000000000    0.100000000000    0.000000000000      12
    0.116666666667    0.116666666667    0.000000000000       6
    0.133333333333    0.116666666667    0.000000000000      24
    0.150000000000    0.116666666667    0.000000000000      24
    0.166666666667    0.116666666667    0.000000000000      24
    0.183333333333    0.116666666667    0.000000000000      24
    0.200000000000    0.116666666667    0.000000000000      24
    0.216666666667    0.116666666667    0.000000000000      24
    0.233333333333    0.116666666667    0.000000000000      24
    0.250000000000    0.116666666667    0.000000000000      24
    0.266666666667    0.116666666667    0.000000000000      24
    0.283333333333    0.116666666667    0.000000000000      24
    0.300000000000    0.116666666667    0.000000000000      24
    0.316666666667    0.116666666667    0.000000000000      24
    0.333333333333    0.116666666667    0.000000000000      24
    0.350000000000    0.116666666667    0.000000000000      24
    0.366666666667    0.116666666667    0.000000000000      24
    0.383333333333    0.116666666667    0.000000000000      24
    0.400000000000    0.116666666667    0.000000000000      24
    0.416666666667    0.116666666667    0.000000000000      24
    0.433333333333    0.116666666667    0.000000000000      24
    0.450000000000    0.116666666667    0.000000000000      24
    0.466666666667    0.116666666667    0.000000000000      24
    0.483333333333    0.116666666667    0.000000000000      24
    0.500000000000    0.116666666667    0.000000000000      24
   -0.483333333333    0.116666666667    0.000000000000      24
   -0.466666666667    0.116666666667    0.000000000000      24
   -0.450000000000    0.116666666667    0.000000000000      24
   -0.433333333333    0.116666666667    0.000000000000      24
   -0.416666666667    0.116666666667    0.000000000000      24
   -0.400000000000    0.116666666667    0.000000000000      24
   -0.383333333333    0.116666666667    0.000000000000      24
   -0.366666666667    0.116666666667    0.000000000000      24
   -0.350000000000    0.116666666667    0.000000000000      24
   -0.333333333333    0.116666666667    0.000000000000      24
   -0.316666666667    0.116666666667    0.000000000000      24
   -0.300000000000    0.116666666667    0.000000000000      24
   -0.283333333333    0.116666666667    0.000000000000      24
   -0.266666666667    0.116666666667    0.000000000000      24
   -0.250000000000    0.116666666667    0.000000000000      24
   -0.233333333333    0.116666666667    0.000000000000      24
   -0.216666666667    0.116666666667    0.000000000000      24
   -0.200000000000    0.116666666667    0.000000000000      24
   -0.183333333333    0.116666666667    0.000000000000      24
   -0.166666666667    0.116666666667    0.000000000000      24
   -0.150000000000    0.116666666667    0.000000000000      24
   -0.133333333333    0.116666666667    0.000000000000      24
   -0.116666666667    0.116666666667    0.000000000000      12
    0.133333333333    0.133333333333    0.000000000000       6
    0.150000000000    0.133333333333    0.000000000000      24
    0.166666666667    0.133333333333    0.000000000000      24
    0.183333333333    0.133333333333    0.000000000000      24
    0.200000000000    0.133333333333    0.000000000000      24
    0.216666666667    0.133333333333    0.000000000000      24
    0.233333333333    0.133333333333    0.000000000000      24
    0.250000000000    0.133333333333    0.000000000000      24
    0.266666666667    0.133333333333    0.000000000000      24
    0.283333333333    0.133333333333    0.000000000000      24
    0.300000000000    0.133333333333    0.000000000000      24
    0.316666666667    0.133333333333    0.000000000000      24
    0.333333333333    0.133333333333    0.000000000000      24
    0.350000000000    0.133333333333    0.000000000000      24
    0.366666666667    0.133333333333    0.000000000000      24
    0.383333333333    0.133333333333    0.000000000000      24
    0.400000000000    0.133333333333    0.000000000000      24
    0.416666666667    0.133333333333    0.000000000000      24
    0.433333333333    0.133333333333    0.000000000000      24
    0.450000000000    0.133333333333    0.000000000000      24
    0.466666666667    0.133333333333    0.000000000000      24
    0.483333333333    0.133333333333    0.000000000000      24
    0.500000000000    0.133333333333    0.000000000000      24
   -0.483333333333    0.133333333333    0.000000000000      24
   -0.466666666667    0.133333333333    0.000000000000      24
   -0.450000000000    0.133333333333    0.000000000000      24
   -0.433333333333    0.133333333333    0.000000000000      24
   -0.416666666667    0.133333333333    0.000000000000      24
   -0.400000000000    0.133333333333    0.000000000000      24
   -0.383333333333    0.133333333333    0.000000000000      24
   -0.366666666667    0.133333333333    0.000000000000      24
   -0.350000000000    0.133333333333    0.000000000000      24
   -0.333333333333    0.133333333333    0.000000000000      24
   -0.316666666667    0.133333333333    0.000000000000      24
   -0.300000000000    0.133333333333    0.000000000000      24
   -0.283333333333    0.133333333333    0.000000000000      24
   -0.266666666667    0.133333333333    0.000000000000      24
   -0.250000000000    0.133333333333    0.000000000000      24
   -0.233333333333    0.133333333333    0.000000000000      24
   -0.216666666667    0.133333333333    0.000000000000      24
   -0.200000000000    0.133333333333    0.000000000000      24
   -0.183333333333    0.133333333333    0.000000000000      24
   -0.166666666667    0.133333333333    0.000000000000      24
   -0.150000000000    0.133333333333    0.000000000000      24
   -0.133333333333    0.133333333333    0.000000000000      12
    0.150000000000    0.150000000000    0.000000000000       6
    0.166666666667    0.150000000000    0.000000000000      24
    0.183333333333    0.150000000000    0.000000000000      24
    0.200000000000    0.150000000000    0.000000000000      24
    0.216666666667    0.150000000000    0.000000000000      24
    0.233333333333    0.150000000000    0.000000000000      24
    0.250000000000    0.150000000000    0.000000000000      24
    0.266666666667    0.150000000000    0.000000000000      24
    0.283333333333    0.150000000000    0.000000000000      24
    0.300000000000    0.150000000000    0.000000000000      24
    0.316666666667    0.150000000000    0.000000000000      24
    0.333333333333    0.150000000000    0.000000000000      24
    0.350000000000    0.150000000000    0.000000000000      24
    0.366666666667    0.150000000000    0.000000000000      24
    0.383333333333    0.150000000000    0.000000000000      24
    0.400000000000    0.150000000000    0.000000000000      24
    0.416666666667    0.150000000000    0.000000000000      24
    0.433333333333    0.150000000000    0.000000000000      24
    0.450000000000    0.150000000000    0.000000000000      24
    0.466666666667    0.150000000000    0.000000000000      24
    0.483333333333    0.150000000000    0.000000000000      24
    0.500000000000    0.150000000000    0.000000000000      24
   -0.483333333333    0.150000000000    0.000000000000      24
   -0.466666666667    0.150000000000    0.000000000000      24
   -0.450000000000    0.150000000000    0.000000000000      24
   -0.433333333333    0.150000000000    0.000000000000      24
   -0.416666666667    0.150000000000    0.000000000000      24