C    P    O    H 
   1.00000000000000     
   7.2974033356000003   0.0000000000000000   0.0000000000000000
  -3.3255740842999999   6.4955978661999998   0.0000000000000000
   0.0000000000000000   0.0000000000000000  15.0000000000000000
C    P    O    H 
16  1  1  1  
Direct
  0.9912274888847384  0.9933102467962868  0.4133543494663688  
  0.1032518321735645  0.2019784465954939  0.3972918215792180  
  0.0170790967386502  0.3360762498631578  0.4173973847879406  
  0.1296770087964740  0.5589498375468174  0.4286802897801696  
  0.0115194235084492  0.6670045295357987  0.4319519534375276  
  0.1090809225616918  0.8821815843875018  0.4200264953800280  
  0.3212434935141649  0.0026263540158730  0.4179923337127204  
  0.4733049108401564  0.5903830008490933  0.4647943150990895  
  0.3498939172311288  0.6844989747857141  0.4389543685443308  
  0.4509903296750144  0.9077897614413460  0.4305972611819984  
  0.6740077657021362  0.0158905623651212  0.4335456929137520  
  0.8002195007272872  0.2364260145961812  0.4367508067477840  
  0.7079882025806049  0.3557316319059970  0.4683544079532272  
  0.7992864609483852  0.5686299668299881  0.4550339735793356  
  0.6861766311095153  0.6862334732590130  0.4561314574150700  
  0.7807330672160896  0.8971988486179860  0.4330716329916177  
  0.3731823128318238  0.2651798669946162  0.3900314447382877  
  0.3815329134522093  0.3898251646393320  0.4916678783196384  
  0.5787346095100359  0.2798660491424451  0.5130323754468787  
